X,Y,sigma_xx,sigma_yy,sigma_xy,sigma_1,sigma_3,epsilon_xx,epsilon_yy,epsilon_xy,tau_mob,tau_max,tau_rel,status
0.0,0.0,0.049571436,0.06450687,0.009535488,0.06915082,0.044927493,0.003990465,0.007873678,0.004958453,0.012111664,2.9102793,0.0041616843,0.0
0.0,0.42857143,0.038653582,0.023950767,0.015041506,0.04804404,0.01456031,0.0051667914,0.00134406,0.007821582,0.016741864,2.9160688,0.0057412446,0.0
0.0,0.21428572,0.007994159,0.015456833,0.012827781,0.025084944,-0.0016339514,0.00024930385,0.002189599,0.0066704457,0.013359448,2.9204726,0.004574413,0.0
0.0,0.32142857,0.08690805,0.08226245,0.0109585645,0.09578728,0.07338322,0.009400793,0.008192937,0.005698453,0.01120203,2.9040828,0.0038573383,0.0
0.0,0.10714286,0.08376609,0.07419084,0.00962539,0.08972879,0.06822814,0.009458541,0.006968977,0.0050052023,0.0107503235,2.905344,0.0037001895,0.0
0.0,3.0,0.0746963,0.07214632,0.007149297,0.08068341,0.06615922,0.007967312,0.0073043182,0.003717634,0.007262096,2.906594,0.0024984898,0.0
0.0,0.42857143,0.034647726,0.027637744,0.010843068,0.04253822,0.01974725,0.004150141,0.0023275467,0.005638395,0.011395484,2.9161046,0.0039077764,0.0
0.0,3.0,0.081252776,0.08442864,0.011620706,0.09456941,0.071112014,0.00820257,0.009028295,0.0060427664,0.0117286965,2.9044752,0.0040381467,0.0
0.0,2.5714285,0.026666323,0.032856878,0.0035952933,0.034505744,0.025017459,0.0022904337,0.0038999782,0.0018695523,0.0047441423,2.9164155,0.0016267032,0.0
0.0,2.7857144,0.07904065,0.06781439,0.010456534,0.08529538,0.061559644,0.009095875,0.006177047,0.0054373974,0.011867868,2.9065926,0.0040830863,0.0
0.0,2.892857,0.022422912,0.03714875,0.0021726477,0.037462614,0.022109048,0.0011833669,0.005012085,0.0011297767,0.007676783,2.91641,0.0026322715,0.0
0.0,2.6785715,0.011782936,0.017849619,0.0126773305,0.027851455,0.0017810985,0.00075222395,0.0023295612,0.0065922113,0.013035178,2.9197774,0.0044644424,0.0
0.0,0.42857143,0.053461116,0.072278365,0.007189118,0.07471059,0.051028896,0.00409221,0.008984694,0.003738341,0.011840848,2.9089677,0.004070464,0.0
0.0,0.42857143,0.07873845,0.060637463,0.013051987,0.085570835,0.053805076,0.009600675,0.004894418,0.0067870324,0.01588288,2.907434,0.0054628514,0.0
0.0,0.85714287,0.034718323,0.054175872,0.005417357,0.055582482,0.033311713,0.0020930164,0.0071519786,0.0028170254,0.011135384,2.913112,0.0038225048,0.0
0.0,0.64285713,0.033156667,0.05249989,0.008910672,0.055978946,0.029677607,0.0019395216,0.006968759,0.004633549,0.01315067,2.913476,0.0045137387,0.0
0.0,0.75,0.07038762,0.05001412,0.018385656,0.081219964,0.039181776,0.008909444,0.0036123348,0.00956054,0.021019094,2.909568,0.0072241286,0.0
0.0,0.53571427,0.042965677,0.044013694,0.0103610875,0.053864017,0.033115357,0.0043866844,0.004659169,0.005387765,0.01037433,2.9133272,0.0035609903,0.0
0.0,1.2857143,0.047136415,0.06421837,0.008179945,0.06750362,0.04385116,0.0035697941,0.008011102,0.004253571,0.011826232,2.9105856,0.0040631797,0.0
0.0,0.85714287,0.043626606,0.03187631,0.0071946895,0.04704021,0.028462706,0.00545369,0.0023986124,0.0037412383,0.0092887515,2.914618,0.0031869533,0.0
0.0,1.0714285,0.05844636,0.029974863,0.0116105825,0.06258076,0.02584047,0.008299197,0.0008966088,0.006037502,0.018370144,2.913165,0.0063059055,0.0
0.0,1.1785715,0.04007169,0.06658557,0.014925164,0.07329127,0.033365987,0.0020993722,0.008992981,0.0077610845,0.019962642,2.911114,0.0068573896,0.0
0.0,0.96428573,0.06858035,0.061505012,0.01201451,0.0775672,0.052518163,0.0076842317,0.0058446443,0.0062475447,0.012524517,2.9084787,0.004306209,0.0
0.0,1.2857143,0.054317303,0.07174122,0.010300641,0.07652005,0.049538467,0.004289933,0.008820152,0.0053563328,0.0134907905,2.9089317,0.004637713,0.0
0.0,2.5714285,0.015328222,0.008628251,0.0058235396,0.01869657,0.0052599027,0.0021167325,0.00037474028,0.0030282403,0.006718334,2.9204156,0.0023004718,0.0
0.0,2.142857,0.058584355,0.052010287,0.005785938,0.06195177,0.048642874,0.0066055492,0.004896292,0.0030086874,0.006654449,2.910671,0.002286225,0.0
0.0,2.357143,0.012931637,0.008973619,0.0050623002,0.016388007,0.005517247,0.0016536154,0.00062453095,0.0026323958,0.0054353797,2.9206464,0.0018610194,0.0
0.0,2.4642856,0.046152715,0.05320337,0.009472044,0.059784852,0.039571233,0.0042499304,0.006083101,0.0049254624,0.010106809,2.911935,0.0034708225,0.0
0.0,2.25,0.07794064,0.054596037,0.008749983,0.080856174,0.051680505,0.009926706,0.0038571076,0.004549991,0.0145878345,2.9082031,0.0050160987,0.0
0.0,2.142857,0.06842525,0.07037371,0.0102461185,0.079691805,0.059107147,0.0069642453,0.007470844,0.005327981,0.010292329,2.9074988,0.0035399254,0.0
0.0,2.142857,0.042295516,0.06699913,0.00936004,0.07014498,0.039149664,0.002471851,0.00889479,0.0048672203,0.015497658,2.9108174,0.00532416,0.0
0.0,1.7142857,0.051559623,0.030202022,0.0100166295,0.05552219,0.026239455,0.0070280926,0.001475117,0.005208647,0.014641367,2.913914,0.0050246394,0.0
0.0,1.9285715,0.060849898,0.04590527,0.0046572457,0.062182434,0.044572733,0.0074940687,0.0036084668,0.0024217675,0.00880485,2.911103,0.0030245753,0.0
0.0,2.0357144,0.08820798,0.08655031,0.008664054,0.09608275,0.07867554,0.009302927,0.0088719325,0.0045053074,0.008703604,2.9034543,0.0029976722,0.0
0.0,1.8214285,0.0063496167,0.008477937,0.004396377,0.0119371135,0.002890441,0.000494351,0.0010477144,0.002286116,0.004523336,2.9214425,0.0015483227,0.0
0.0,1.7142857,0.016682334,0.029309185,0.007951542,0.033148903,0.012842613,0.00075006805,0.004033049,0.004134801,0.010153145,2.9179373,0.0034795622,0.0
0.0,1.2857143,0.063910656,0.05652753,0.014726377,0.07540112,0.045037072,0.007222591,0.005302978,0.007657715,0.015182024,2.909564,0.005217972,0.0
0.0,1.5,0.06499377,0.030137977,0.00895693,0.067160726,0.027971026,0.0094781015,0.00041559784,0.004657603,0.01959485,2.9124103,0.0067280526,0.0
0.0,1.6071428,0.049028207,0.06764813,0.003083065,0.068145335,0.048530992,0.003646579,0.008487758,0.0016031936,0.009807171,2.909987,0.003370177,0.0
0.0,1.3928572,0.035264116,0.053886786,0.010788976,0.05882687,0.030324033,0.0022148993,0.007056793,0.005610267,0.014251419,2.9130828,0.0048922123,0.0
0.0,1.7142857,0.06365962,0.04874679,0.009910905,0.068605796,0.043800622,0.007783801,0.003906464,0.00515367,0.012402587,2.9104674,0.0042613726,0.0
0.0,0.85714287,0.062763326,0.06451464,0.0054477593,0.06915667,0.0581213,0.006390782,0.0068461243,0.0028328346,0.005517684,2.9087946,0.001896897,0.0
0.06855419,2.888058,0.028985837,0.041010324,0.012626916,0.04898329,0.021012872,0.0020766167,0.005202983,0.006565996,0.013985209,2.9152374,0.00479728,0.0
0.06855419,2.888058,0.05898132,0.047302708,0.008139609,0.06315954,0.043124493,0.007044988,0.0040085493,0.0042325966,0.010017524,2.911156,0.0034410811,0.0
0.06855419,2.5666294,0.071600676,0.043880567,0.0012949747,0.07166104,0.043820202,0.009608638,0.0024014101,0.0006733868,0.013920419,2.9101214,0.0047834497,0.0
0.06855419,2.7809153,0.026346792,0.05385436,0.007575477,0.05580263,0.02439852,0.00059447554,0.007746443,0.0039392477,0.015702054,2.9140897,0.0053883223,0.0
0.06855419,2.6737723,0.023286682,0.011289006,0.014619276,0.033090033,0.0014856514,0.0033576332,0.00023823792,0.007602023,0.01580219,2.9192214,0.0054131523,0.0
0.06855419,2.5666294,0.014834148,0.026716653,0.013807493,0.03580688,0.0057439217,0.00061591587,0.0037053667,0.007179896,0.015031479,2.9184368,0.0051505244,0.0
0.06855419,2.2452009,0.05829594,0.04589075,0.0012476725,0.05842018,0.045766503,0.0070303814,0.0038050327,0.00064878963,0.0063268393,2.9113917,0.0021731323,0.0
0.06855419,2.4594865,0.048251398,0.040254686,0.009627096,0.05467743,0.033828657,0.0056418884,0.0035627433,0.00500609,0.010424387,2.9131556,0.0035783832,0.0
0.06855419,2.3523438,0.0040833913,0.00822608,0.006024797,0.012525657,-0.00021618651,0.000101542944,0.0011786419,0.0031328942,0.0063709216,2.9217257,0.0021805337,0.0
0.06855419,2.2452009,0.07479271,0.06488514,0.0071518575,0.07853887,0.06113898,0.008551232,0.005975263,0.0037189655,0.008699946,2.9074,0.002992346,0.0
0.07198849,0.92560166,0.038837247,0.024123024,0.0052614696,0.04052503,0.022435237,0.005186782,0.0013610851,0.002735964,0.009044897,2.9160287,0.003101786,0.0
0.07198849,1.2470303,0.033780072,0.014502174,0.0018693721,0.03395967,0.014322576,0.005016803,4.549989e-06,0.0009720734,0.009818548,2.9176798,0.0033651905,0.0
0.07198849,1.1398875,0.016356511,0.023498451,0.011039776,0.031530432,0.00832453,0.0011440055,0.00300091,0.005740683,0.011602951,2.9186275,0.003975482,0.0
0.07198849,1.0327445,0.038722754,0.05508702,0.0049707144,0.05647856,0.03733121,0.0027507532,0.0070054615,0.0025847713,0.009573676,2.912559,0.0032870322,0.0
0.07198849,1.2470303,0.060497902,0.07271596,0.009728975,0.07809489,0.055118974,0.005338772,0.008515468,0.005059066,0.011487959,2.9081268,0.003950295,0.0
0.07198849,0.92560166,0.06608088,0.044159036,0.012195921,0.071517594,0.03872233,0.0085823145,0.0028826355,0.0063418783,0.016397633,2.910711,0.005633549,0.0
0.09280204,1.3404653,0.06462942,0.042281557,0.0068894816,0.06658262,0.04032835,0.008464592,0.0026541483,0.00358253,0.013127135,2.9110854,0.004509361,0.0
0.09280204,1.3404653,0.012517921,0.005550026,0.01479049,0.02422925,-0.006161305,0.0018453592,3.370693e-05,0.007691054,0.015195278,2.921078,0.0052019423,0.0
0.09280204,1.6618938,0.064303175,0.068500325,0.010166478,0.07678256,0.056020938,0.0063601504,0.0074514113,0.0052865683,0.010380812,2.908173,0.0035695303,0.0
0.09280204,1.554751,0.058066163,0.048317768,0.0070479936,0.061761215,0.04462272,0.006799255,0.0042646723,0.0036649564,0.008569248,2.9111447,0.0029436008,0.0
0.09280204,1.4476081,0.03152164,0.017039131,0.015491897,0.041381106,0.0071796644,0.004407886,0.0006424339,0.008055786,0.017100722,2.9176483,0.005861132,0.0
0.09280204,1.6618938,0.04370985,0.037754286,0.011120613,0.052244466,0.029219676,0.005010358,0.003461911,0.005782718,0.011512395,2.9139476,0.00395079,0.0
0.10340423,0.52359706,0.059261367,0.034471367,0.0061833486,0.060718074,0.033014655,0.008096801,0.0016514016,0.003215341,0.01385171,2.9125676,0.0047558416,0.0
0.10340423,0.52359706,0.057470933,0.05765969,0.009217457,0.06678325,0.04834737,0.005962253,0.0060113296,0.0047930772,0.00921794,2.9101608,0.003167502,0.0
0.10340423,0.84502566,0.05409731,0.055532295,0.0031519982,0.05804743,0.051582173,0.0055141905,0.0058872867,0.0016390389,0.003232628,2.9107797,0.0011105712,0.0
0.10340423,0.6307399,0.03715445,0.03324294,0.011366933,0.04673265,0.02366474,0.0041691605,0.0031521674,0.0059108045,0.011533954,2.9151924,0.0039564986,0.0
0.10340423,0.7378828,0.048294187,0.0747291,0.012392509,0.07963002,0.04339327,0.0029606714,0.009833748,0.006444104,0.018118374,2.9092731,0.006227801,0.0
0.10340423,0.84502566,0.07131981,0.07887919,0.0049157967,0.08130039,0.0688986,0.0068276282,0.008793066,0.002556214,0.0062008947,2.9062166,0.0021336656,0.0
0.113530055,2.1172967,0.03192456,0.013872587,0.0032146955,0.032479946,0.0133172,0.0047282074,3.4695175e-05,0.0016716415,0.009581372,2.9179592,0.0032835868,0.0
0.113530055,1.7958682,0.039499067,0.037932467,0.010426365,0.04917151,0.028260019,0.004230097,0.0038227814,0.0054217093,0.010455746,2.914401,0.003587614,0.0
0.113530055,2.1172967,0.069398195,0.07187806,0.012972514,0.08366977,0.057606492,0.007023982,0.007668747,0.006745707,0.013031637,2.9072201,0.004482508,0.0
0.113530055,2.0101538,0.05902032,0.047256134,0.009400612,0.06422743,0.04204902,0.0070557194,0.0039970307,0.0048883175,0.011089206,2.9111567,0.0038092094,0.0
0.113530055,1.903011,0.047692593,0.03508484,0.004977583,0.049420852,0.03335658,0.0059434334,0.0026654184,0.0025883429,0.008032136,2.9137998,0.0027565847,0.0
0.113530055,1.7958682,0.015215855,0.01331099,0.009244134,0.023556493,0.004970354,0.0017310282,0.0012357633,0.0048069493,0.00929307,2.9199016,0.0031826654,0.0
0.11666667,0.0,0.05764806,0.05441582,0.0045116977,0.060824357,0.05123952,0.006247512,0.0054071294,0.0023460826,0.0047924183,2.9105058,0.001646593,0.0
0.11666667,0.32142857,0.04873563,0.03439425,0.008955529,0.05303753,0.030092351,0.0061871326,0.0024583736,0.0046568746,0.01147259,2.9137602,0.003937383,0.0
0.11666667,0.10714286,0.048896763,0.021997001,0.012584961,0.053866453,0.017027313,0.007183444,0.0001895065,0.0065441793,0.018419571,2.9151363,0.0063185967,0.0
0.11666667,0.21428572,0.061009962,0.029804286,0.004684704,0.06169807,0.029116176,0.008779078,0.0006656024,0.0024360458,0.016290948,2.912896,0.005592698,0.0
0.11666667,0.32142857,0.06678899,0.034532752,0.0032232616,0.06710792,0.03421382,0.009462039,0.00107542,0.0016760959,0.016447052,2.911714,0.005648581,0.0
0.11935539,3.0,0.037799835,0.025984615,0.015943764,0.04889527,0.0148891825,0.0048527694,0.0017808124,0.0082907565,0.017003044,2.915936,0.005831076,0.0
0.13710839,2.776116,0.011253781,0.025515968,0.009994801,0.030662844,0.006106904,5.7942474e-05,0.0037661109,0.005197296,0.01227797,2.9189746,0.004206261,0.0
0.13710839,2.776116,0.06686279,0.0369236,0.003694451,0.06731194,0.036474448,0.009288986,0.0015047964,0.0019211143,0.015418747,2.9114368,0.005295924,0.0
0.13710839,2.5618303,0.06906594,0.06740611,0.0064038658,0.07469344,0.061778605,0.007312324,0.0068807676,0.00333001,0.006457418,2.9077604,0.002220753,0.0
0.13710839,2.6689732,0.03705853,0.04723235,0.0067585385,0.050604425,0.03368645,0.0030605285,0.005705721,0.0035144398,0.008458987,2.9136295,0.0029032473,0.0
0.13710839,2.5618303,0.09263999,0.09156934,0.011789791,0.1039066,0.08030273,0.009718067,0.0094397,0.0061306907,0.011801936,2.9023912,0.00406628,0.0
0.13710839,2.3475447,0.065865226,0.05786283,0.007400297,0.07027675,0.0534513,0.00747417,0.005393546,0.003848154,0.008412726,2.9091938,0.0028917724,0.0
0.13710839,2.4546874,0.037015144,0.053267367,0.009555776,0.057685044,0.03259747,0.0025819011,0.0068074786,0.0049690027,0.012543786,2.9129558,0.0043062055,0.0
0.13710839,2.3475447,0.043126993,0.053414874,0.006803526,0.056800183,0.039741684,0.003682752,0.006357601,0.0035378332,0.00852925,2.9122517,0.0029287473,0.0
0.14397699,0.9940605,0.062370516,0.06554556,0.007806779,0.07192459,0.05599148,0.0062388796,0.0070643905,0.0040595247,0.007966556,2.9087229,0.00273885,0.0
0.14397699,1.2083462,0.0072730742,0.0045280484,0.0073834313,0.013410479,-0.0016093557,0.0009705117,0.0002568049,0.0038393838,0.007509917,2.921783,0.00257032,0.0
0.14397699,1.1012033,0.08303753,0.08898071,0.016119566,0.1024003,0.06961794,0.008172334,0.00971756,0.008382173,0.01639118,2.9037623,0.005644808,0.0
0.14397699,1.2083462,0.06553263,0.06827546,0.014673172,0.08164117,0.052166924,0.006601452,0.007314587,0.0076300483,0.014737122,2.90806,0.0050676814,0.0
0.14397699,0.9940605,0.038099956,0.04346662,0.008745902,0.04993157,0.031635,0.0035437953,0.0049391277,0.004547869,0.009148285,2.913936,0.0031394942,0.0
0.16072504,0.42465436,0.0517745,0.047893975,0.009643811,0.059671294,0.03999718,0.0056872284,0.0046782917,0.005014781,0.009837057,2.9119,0.0033782264,0.0
0.16072504,0.42465436,0.06170203,0.029252881,0.00828838,0.06369652,0.0272584,0.008948044,0.00051126553,0.004309957,0.01821906,2.91288,0.0062546553,0.0
0.16479054,1.3017813,0.030371884,0.039808717,0.007688914,0.044111546,0.026069056,0.0024226026,0.0048761787,0.003998235,0.009021245,2.9152167,0.0030945367,0.0
0.17539273,0.91348445,0.047941193,0.029921297,0.0073415833,0.05055355,0.027308937,0.006391435,0.0017062628,0.003817623,0.011622306,2.9143527,0.0039879545,0.0
0.18208425,2.2196405,0.07479258,0.07345362,0.01095195,0.085095495,0.063150704,0.007882865,0.0075347372,0.005695014,0.010972396,2.9064362,0.0037752062,0.0
0.18560408,1.3952162,0.057502527,0.049283847,0.013616331,0.06761609,0.039170276,0.006621319,0.0044844626,0.007080491,0.014222907,2.9110994,0.004885751,0.0
0.18560408,1.3952162,0.0636144,0.035391394,0.0105951885,0.06714921,0.031856578,0.008817291,0.0014793102,0.0055094976,0.017646315,2.9119744,0.006059914,0.0
0.18560408,1.609502,0.058362946,0.040236983,0.0127083035,0.06490889,0.033691034,0.00748357,0.0027708209,0.006608317,0.015608929,2.9120202,0.005360172,0.0
0.18560408,1.5023592,0.030079748,0.021276807,0.014564091,0.04089293,0.010463623,0.0038149229,0.0015261583,0.0075733266,0.015214653,2.9173338,0.0052152593,0.0
0.18560408,1.609502,0.002463871,0.001747548,0.010702603,0.012814303,-0.008602885,0.00031211574,0.00012587177,0.0055653527,0.010708594,2.9226365,0.0036640184,0.0
0.18790959,2.888058,0.04761914,0.03953888,0.011850256,0.056099046,0.031058978,0.00558265,0.0034817823,0.006162132,0.012520034,2.9133072,0.004297533,0.0
0.20566258,2.664174,0.0777659,0.08562464,0.014653532,0.096866496,0.06652405,0.00747467,0.0095179435,0.007619836,0.015171222,2.9047327,0.0052229324,0.0
0.20566258,2.664174,0.05211503,0.032244045,0.0067216586,0.054175153,0.030183928,0.0069698994,0.0018034432,0.0034952622,0.011995613,2.913622,0.0041170795,0.0
0.20566258,2.5570312,0.06038784,0.03807502,0.010900033,0.06482874,0.033634115,0.0080207335,0.002219402,0.0056680166,0.015597312,2.9120357,0.005356154,0.0
0.20566258,2.5570312,0.045573503,0.030613123,0.007799426,0.048899993,0.027286636,0.005906553,0.0020168547,0.004055701,0.010806679,2.914541,0.0037078492,0.0
0.20566258,2.4498882,0.03013657,0.059539285,0.008993165,0.06207182,0.02760404,0.0008407915,0.008485496,0.0046764454,0.01723389,2.913024,0.005916151,0.0
0.20566258,2.4498882,0.06526789,0.052881606,0.0155585995,0.07582065,0.04232885,0.00775399,0.004533556,0.008090471,0.016745899,2.9098213,0.005754958,0.0
0.2063321,1.7434763,0.017995523,0.02112419,0.015177665,0.034817927,0.0043017883,0.0016274981,0.0024409513,0.007892385,0.015258069,2.9187102,0.005227675,0.0
0.20680848,0.6186227,0.043156523,0.05109479,0.011388681,0.05918617,0.03506514,0.003869093,0.005933042,0.0059221135,0.012060516,2.9125092,0.0041409363,0.0
0.20680848,0.6186227,0.054377016,0.072471455,0.010252134,0.07709751,0.04975096,0.004243843,0.008948396,0.0053311093,0.013673276,2.9088428,0.0047005895,0.0
0.20680848,0.8329084,0.049994525,0.06796546,0.003011094,0.06845656,0.049503427,0.0037976971,0.0084701395,0.0015657687,0.009476567,2.9098427,0.0032567282,0.0
0.20680848,0.7257656,0.03241895,0.01688472,0.010730191,0.03789816,0.011405513,0.0045832405,0.0005443407,0.005579699,0.013246324,2.9175649,0.0045401985,0.0
0.20680848,0.8329084,0.026065663,0.015956242,0.008189474,0.030634755,0.011387149,0.0034993633,0.0008709141,0.004258526,0.009623803,2.9183838,0.0032976482,0.0
0.21596548,1.0625193,0.01841133,0.034005485,0.0073827463,0.036946163,0.015470655,0.0006984343,0.004752914,0.0038390276,0.010737754,2.9172146,0.0036808243,0.0
0.21596548,1.1696622,0.047353983,0.037100352,0.009843689,0.05332593,0.031128408,0.005724597,0.0030586529,0.005118718,0.01109876,2.9136112,0.0038092798,0.0
0.21596548,1.1696622,0.030501135,0.060231417,0.014522068,0.06614759,0.024584966,0.00085315533,0.008583029,0.007551475,0.020781312,2.912905,0.0071342224,0.0
0.21596548,1.0625193,0.05365641,0.043308314,0.012387261,0.06190678,0.035057943,0.006387417,0.0036969124,0.0064413752,0.013424419,2.912204,0.004609711,0.0
0.22706011,2.0917363,0.029483492,0.05482387,0.010275093,0.0584666,0.025840767,0.0010897331,0.007678231,0.005343048,0.016312916,2.9136276,0.0055988333,0.0
0.22706011,1.8774506,0.060519878,0.058703557,0.002815845,0.062570386,0.056653045,0.0064357393,0.005963496,0.0014642392,0.0029586703,2.9097006,0.0010168297,0.0
0.22706011,2.0917363,0.05961839,0.05380232,0.01061248,0.06771406,0.045706656,0.0066539655,0.0051417868,0.005518489,0.011003701,2.9103532,0.0037808816,0.0
0.22706011,1.9845934,0.060875453,0.03476812,0.012892969,0.06616918,0.029474393,0.008367418,0.0015795119,0.006704343,0.018347394,2.9123528,0.006299853,0.0
0.22706011,1.8774506,0.041992106,0.045211155,0.0033364496,0.047306016,0.03989725,0.004116093,0.004953045,0.0017349536,0.003704384,2.913302,0.0012715413,0.0
0.23333333,0.0,0.06911718,0.03990785,0.017863614,0.07758642,0.03143861,0.009466513,0.0018720882,0.009289078,0.023073904,2.9108477,0.007926867,0.0
0.23333333,0.21428572,0.054932054,0.06324773,0.013352651,0.073074915,0.04510487,0.0050643096,0.007226386,0.006943378,0.013985023,2.909818,0.0048061507,0.0
0.23333333,0.10714286,0.06423332,0.042205386,0.007913614,0.066781536,0.03965717,0.008398443,0.0026711805,0.0041150786,0.013562182,2.9111385,0.004658721,0.0
0.23333333,0.21428572,0.03310569,0.020955924,0.013432502,0.041773137,0.012288476,0.004390673,0.0012317342,0.0069849,0.01474233,2.9170296,0.0050538843,0.0
0.23677903,1.2630972,0.029306157,0.057578616,0.006947104,0.059193425,0.027691348,0.00084258826,0.008193427,0.0036124936,0.015751038,2.913338,0.005406526,0.0
0.23871078,3.0,0.035082877,0.03580159,0.004708171,0.0401641,0.030720368,0.003592559,0.0037794244,0.0024482487,0.004721865,2.9151375,0.0016197744,0.0
0.24738123,0.9819433,0.036580216,0.03480344,0.012154183,0.047878437,0.023505218,0.00394293,0.0034809688,0.006320175,0.012186609,2.9150813,0.0041805385,0.0
0.25063846,2.321984,0.016244061,0.024621397,0.014763311,0.035778746,0.0050867107,0.0010359499,0.003214057,0.007676921,0.015346018,2.9185138,0.005258162,0.0
0.25646377,2.776116,0.049109675,0.03907853,0.008181581,0.053690676,0.034497526,0.005889835,0.0032817372,0.0042544217,0.009596575,2.9131913,0.0032941794,0.0
0.2575926,1.3565322,0.073855504,0.0640491,0.0062862104,0.07692462,0.060979992,0.00844587,0.0058962065,0.003268829,0.007972315,2.9075994,0.002741889,0.0
0.26412928,0.51968,0.037611034,0.022631267,0.0048064156,0.03902059,0.021221714,0.0050799684,0.0011852299,0.002499336,0.008899438,2.9163344,0.0030515837,0.0
0.27421677,2.552232,0.054478236,0.03491124,0.012011895,0.060186747,0.029202726,0.007191961,0.0021045431,0.006246185,0.015492011,2.9130561,0.00531813,0.0
0.27421677,2.552232,0.0860775,0.08772787,0.0096241385,0.096562125,0.07724323,0.00882333,0.009252425,0.0050045517,0.009659447,2.9035614,0.0033267583,0.0
0.27421677,2.552232,0.06930754,0.043919906,0.007223418,0.071218885,0.04200856,0.009188219,0.0025874337,0.003756177,0.014605163,2.9103749,0.0050183097,0.0
0.27421677,2.552232,0.021886418,0.019326758,0.011664845,0.03234143,0.008871744,0.0024758405,0.001810329,0.006065719,0.011734843,2.9184747,0.0040208823,0.0
0.27421677,2.552232,0.08756272,0.09177132,0.003793459,0.09400504,0.085329,0.00877825,0.009872487,0.0019725985,0.0043380186,2.9029396,0.0014943538,0.0
0.27421677,2.552232,0.041389827,0.020106582,0.01089483,0.045977827,0.015518579,0.005964635,0.00043099083,0.005665311,0.015229624,2.9161935,0.0052224323,0.0
0.2773917,0.3175115,0.017796889,0.007822564,0.011101422,0.024979908,0.00063954387,0.0026288736,3.5549256e-05,0.0057727387,0.012170183,2.9202287,0.004167544,0.0
0.2784061,1.4499673,0.055061467,0.032771863,0.008861097,0.05815484,0.02967849,0.0074649807,0.0016696842,0.0046077697,0.014238175,2.9132311,0.004887417,0.0
0.2784061,1.4499673,0.09069686,0.08358896,0.0067767627,0.09479503,0.07949078,0.009986889,0.008138834,0.0035239162,0.0076521263,2.9035075,0.0026354766,0.0
0.2784061,1.5571101,0.0045361086,0.0035793001,0.00654458,0.0106197465,-0.0025043376,0.0005463863,0.0002976161,0.0034031814,0.006562042,2.9221976,0.0022455847,0.0
0.2784061,1.5571101,0.06888523,0.0435353,0.011179958,0.07311133,0.039309196,0.009141358,0.002550376,0.005813577,0.016901068,2.9104657,0.005806998,0.0
0.27879697,0.90136725,0.08148393,0.06528811,0.009450707,0.08583158,0.06094046,0.0097376015,0.0055266884,0.004914367,0.012445562,2.906602,0.0042818254,0.0
0.28795397,1.1309781,0.047324255,0.03672379,0.012416832,0.05552477,0.028523277,0.005748558,0.0029924375,0.0064567523,0.013500746,2.913657,0.0046336087,0.0
0.28795397,1.1309781,0.06825643,0.03728717,0.003030721,0.06855024,0.036993362,0.00951427,0.0014622622,0.0015759749,0.015778437,2.9112391,0.0054198354,0.0
0.28795397,1.1309781,0.0018685752,0.003062445,0.011969305,0.0144496905,-0.009518671,0.00010120997,0.00041161606,0.0062240376,0.011984181,2.9225557,0.0041005826,0.0
0.28795397,1.1309781,0.010197422,0.0052524507,0.01639977,0.024310037,-0.008860166,0.0014462393,0.00016054712,0.00852788,0.016585102,2.9213724,0.0056771613,0.0
0.28795397,1.1309781,0.036282852,0.035161655,0.012213507,0.04794862,0.02349589,0.0038608692,0.0035693583,0.006351023,0.0122263655,2.9150746,0.004194186,0.0
0.2956143,2.19408,0.008017566,0.003802149,0.009225553,0.015373116,-0.0035534017,0.0011626292,6.6620974e-05,0.004797287,0.009463259,2.9217808,0.0032388668,0.0
0.29913414,1.6910844,0.03864519,0.018544778,0.0032356167,0.039153196,0.018036772,0.005586931,0.00036082478,0.0016825205,0.010558212,2.9166777,0.0036199447,0.0
0.30726498,2.888058,0.016876627,0.0095994985,0.016654087,0.030284991,-0.0038088653,0.002322785,0.00043073157,0.008660125,0.017046928,2.9201324,0.0058377245,0.0
0.30876753,1.2244132,0.06609649,0.06273963,0.0084631005,0.07304599,0.05579013,0.0071358695,0.006263086,0.004400812,0.008627931,2.9086194,0.002966332,0.0
0.30876753,1.2244132,0.04959698,0.038863227,0.011716229,0.05711705,0.03134316,0.0059953174,0.0032045427,0.0060924385,0.012886945,2.9131606,0.004423699,0.0
0.3102127,0.7136483,0.08058858,0.072679006,0.011430965,0.08872955,0.06453804,0.008998157,0.0069416687,0.005944101,0.012095757,2.9058714,0.004162523,0.0
0.3102127,0.7136483,0.019203465,0.024911476,0.011600943,0.03400432,0.0101106195,0.0015519353,0.003036018,0.00603249,0.0119468495,2.9181483,0.004093983,0.0
0.3102127,0.8207912,0.05698512,0.05478974,0.0032669445,0.059333857,0.052441005,0.0060976916,0.0055268924,0.001698811,0.0034464262,2.9105382,0.00118412,0.0
0.3102127,0.8207912,0.045676984,0.04784887,0.0041894573,0.05109084,0.042435016,0.0045809983,0.005145689,0.0021785176,0.004327912,2.912591,0.0014859319,0.0
0.31919265,2.4243279,0.06809284,0.062412363,0.015962048,0.08146537,0.049039833,0.007524731,0.0060478076,0.008300264,0.016212769,2.9084315,0.005574403,0.0
0.31919265,2.4243279,0.086805016,0.08819233,0.008872862,0.09639861,0.07859874,0.00891951,0.009280211,0.004613888,0.008899935,2.9034274,0.0030653202,0.0
0.31936973,1.0504022,0.04775341,0.074988,0.014924388,0.081573874,0.041167535,0.0028420559,0.009923049,0.007760681,0.02020317,2.9093049,0.0069443285,0.0
0.31936973,1.0504022,0.051066935,0.047405485,0.0041690823,0.053789537,0.04468288,0.0055965534,0.004644577,0.0021679227,0.004553329,2.9120345,0.0015636247,0.0
0.31986216,1.8250587,0.06448218,0.06902451,0.016661406,0.08356883,0.049937855,0.0063518435,0.0075328504,0.00866393,0.016815485,2.908094,0.005782305,0.0
0.32145008,0.4207373,0.035083592,0.040121537,0.0061905226,0.044285964,0.03091917,0.0032557335,0.004565599,0.0032190715,0.006683397,2.9146514,0.002293035,0.0
0.32145008,0.4207373,0.08629698,0.07910412,0.0053412053,0.089139715,0.07626139,0.009535927,0.0076657846,0.0027774265,0.0064391643,2.9045067,0.0022169563,0.0
0.32501796,2.664174,0.06600795,0.034583718,0.005979556,0.067107305,0.03348436,0.0093159145,0.0011456169,0.003109369,0.016811473,2.911796,0.005773575,0.0
0.32501796,2.664174,0.026567012,0.058705963,0.016861375,0.06592885,0.019344127,0.0002561307,0.008612257,0.008767914,0.023292359,2.9135191,0.007994579,0.0
0.32958108,1.3178482,0.036281984,0.033168375,0.007033752,0.04192916,0.027521204,0.004016187,0.0032066493,0.0036575506,0.0072039776,2.9152987,0.0024710943,0.0
0.32958108,1.3178482,0.04865678,0.05785177,0.005888749,0.060725175,0.04578338,0.0043430952,0.0067337924,0.003062149,0.0074708983,2.9111307,0.002566322,0.0
0.34059018,2.066176,0.01830879,0.018640572,0.007234236,0.02571082,0.011238543,0.0018782349,0.0019644983,0.0037618026,0.007236138,2.9189544,0.0024790172,0.0
0.34059018,1.959033,0.051554125,0.059260983,0.0061320304,0.06264984,0.04816527,0.004760493,0.0067642764,0.0031886555,0.0072422847,2.9106462,0.0024882052,0.0
0.34059018,2.066176,0.06649856,0.04787291,0.007703954,0.06927208,0.045099393,0.00836865,0.003525981,0.0040060556,0.012086343,2.9102464,0.004153031,0.0
0.34059018,1.959033,0.06945727,0.051804513,0.011769625,0.07534242,0.045919366,0.00860047,0.0040107537,0.0061202045,0.014711525,2.9094713,0.0050564255,0.0
0.35,0.0,0.08650722,0.07977084,0.0054678554,0.08956104,0.07671703,0.009522188,0.007770728,0.0028432845,0.0064220056,2.904408,0.0022111237,0.0
0.35,0.10714286,0.03294889,0.028202474,0.018252978,0.048982292,0.012169071,0.0037969046,0.0025628363,0.009491548,0.018406611,2.916232,0.0063117784,0.0
0.35,0.10714286,0.02612175,0.049864937,0.015327447,0.057380587,0.018606095,0.00086469325,0.007037921,0.007970272,0.019387245,2.9145637,0.006651852,0.0
0.3503946,1.4112833,0.05803487,0.06707168,0.0013269131,0.06726249,0.057844065,0.0053307544,0.0076803253,0.0006899948,0.004709214,2.9090388,0.0016188213,0.0
0.3503946,1.4112833,0.065973304,0.03189525,0.00819757,0.06784271,0.030025851,0.00951931,0.00065901765,0.004262736,0.018908428,2.9121025,0.0064930506,0.0
0.35078546,0.96982604,0.023387762,0.033769134,0.010041478,0.039882187,0.017274711,0.0016225798,0.0043217367,0.005221568,0.011303738,2.9166815,0.0038755476,0.0
0.35078546,0.96982604,0.02756746,0.015757669,0.011998293,0.035035178,0.008289948,0.0037881788,0.0007176339,0.0062391115,0.013372615,2.9182372,0.004582429,0.0
0.35806617,3.0,0.02531957,0.023629725,0.013472467,0.037973583,0.010975712,0.002765043,0.0023256831,0.007005682,0.013498936,2.9176047,0.004626719,0.0
0.3641685,2.2964237,0.059273515,0.057921663,0.012704717,0.07132027,0.0458749,0.006269889,0.005918408,0.006606452,0.012722686,2.9099286,0.004372164,0.0
0.3641685,2.2964237,0.053589776,0.035399545,0.012522192,0.0599713,0.029018018,0.006992174,0.0022627143,0.006511539,0.01547664,2.9131012,0.005312771,0.0
0.3675335,0.6147056,0.07125044,0.048354063,0.016633602,0.07999477,0.03960973,0.009195962,0.0032429048,0.008649472,0.020192519,2.9096577,0.006939826,0.0
0.37120816,1.5047182,0.05618308,0.045845184,0.014318025,0.066236615,0.035791654,0.0066493955,0.0039615426,0.007445372,0.0152224805,2.9116344,0.0052281567,0.0
0.37120816,1.5047182,0.06629937,0.039036836,0.013953181,0.07217458,0.033161625,0.009021611,0.0019333528,0.0072556534,0.019506477,2.9112625,0.0067003495,0.0
0.37120816,1.5047182,0.06776321,0.039574992,0.002751933,0.06802936,0.039308842,0.009246054,0.0019171174,0.001431005,0.014360258,2.9110374,0.004933038,0.0
0.37120816,1.5047182,0.04863454,0.05963003,0.007301373,0.063272044,0.04499252,0.0042003435,0.00705917,0.0037967137,0.009139761,2.910933,0.0031398048,0.0
0.37120816,1.5047182,0.06901048,0.07350688,0.014665895,0.08609589,0.056421466,0.006826371,0.007995432,0.007626265,0.014837213,2.9070807,0.0051038186,0.0
0.37120816,1.5047182,0.07013268,0.050106943,0.011314239,0.0752284,0.04501122,0.008855806,0.0036491135,0.005883404,0.015108591,2.9095862,0.0051926943,0.0
0.37581918,2.776116,0.086482875,0.08730658,0.0049979836,0.091909654,0.0818798,0.008929968,0.009144133,0.002598951,0.005014926,2.9035633,0.0017271627,0.0
0.37581918,2.776116,0.049816635,0.063620426,0.0081078885,0.06736625,0.046070807,0.004104234,0.0076932185,0.0042161015,0.010647722,2.9103513,0.0036585692,0.0
0.3797013,1.1478772,0.029861176,0.03763149,0.009705042,0.04420015,0.023292515,0.0024994775,0.0045197587,0.005046621,0.0104538165,2.915519,0.0035855765,0.0
0.3797013,1.1478772,0.029233957,0.015631089,0.009433199,0.034061998,0.010803046,0.0041013546,0.00056460936,0.004905263,0.011629476,2.918064,0.0039853393,0.0
0.3822012,0.88925004,0.076939456,0.071593836,0.0077484963,0.082463175,0.06607011,0.008418661,0.0070287995,0.0040292176,0.008196533,2.9064038,0.002820163,0.0
0.3822012,0.88925004,0.022631302,0.023247857,0.0041614193,0.027112402,0.018766757,0.0023055638,0.002465868,0.0021639378,0.0041728225,2.91795,0.0014300528,0.0
0.38409993,2.553833,0.036252115,0.05506432,0.009193712,0.05881113,0.032505304,0.0023028671,0.007194041,0.0047807298,0.013152912,2.9128394,0.004515495,0.0
0.38409993,2.553833,0.065352164,0.03707198,0.008897971,0.06791884,0.034505304,0.009002478,0.0016496311,0.0046269447,0.016706767,2.91159,0.0057380213,0.0
0.39193618,1.6386925,0.013771261,0.02429096,0.013495073,0.033515,0.0045472234,0.0006116744,0.0033467961,0.0070174374,0.014483888,2.9188292,0.004962225,0.0
0.39193618,1.6386925,0.02283805,0.043111656,0.011218188,0.04809446,0.017855247,0.00079381606,0.0060649524,0.005833457,0.015119606,2.9156926,0.0051855966,0.0
0.39405838,0.21036865,0.07561406,0.08490104,0.010392278,0.091640055,0.068875045,0.0071394756,0.009554092,0.0054039843,0.011382505,2.9050562,0.0039181705,0.0
0.40051484,1.2413123,0.04563335,0.036319163,0.004948761,0.047771752,0.03418076,0.0054723737,0.0030506863,0.0025733553,0.0067954957,2.9138925,0.0023321025,0.0
0.40914437,2.1685195,0.056478694,0.028480537,0.013516908,0.061939344,0.023019888,0.008057639,0.0007781195,0.007028791,0.019459728,2.9135544,0.006679034,0.0
0.40914437,2.1685195,0.039193172,0.067631274,0.0121438615,0.07211128,0.034713164,0.0018579172,0.009251824,0.0063148076,0.018699057,2.9110951,0.0064233756,0.0
0.41111705,1.0673012,0.028638437,0.015756119,0.010836104,0.034803215,0.00959134,0.0039832178,0.00063381536,0.0056347735,0.012605937,2.918117,0.0043198876,0.0
0.4126642,1.7726668,0.08027591,0.07231307,0.011915348,0.08885742,0.06373156,0.008969794,0.0068994574,0.00619598,0.012562931,2.9059477,0.0043231784,0.0
0.4126642,1.7726668,0.02114242,0.030152341,0.013011637,0.039416816,0.011877944,0.0014960375,0.003838617,0.0067660506,0.013769437,2.9173408,0.004719859,0.0
0.41361696,0.808674,0.02326416,0.045240827,0.0027956848,0.045590892,0.022914095,0.00070529233,0.006419225,0.001453756,0.011338399,2.915405,0.0038891332,0.0
0.41361696,0.808674,0.05653859,0.05675526,0.008636468,0.06528407,0.048009776,0.005863112,0.0059194467,0.004490963,0.008637149,2.9103675,0.0029677176,0.0
0.41361696,0.808674,0.036638755,0.032142032,0.012181043,0.046777196,0.02200359,0.0041611744,0.0029920265,0.006334142,0.0123868035,2.915374,0.004248787,0.0
0.41361696,0.808674,0.009725076,0.015021987,0.013182009,0.025818964,-0.001071902,0.0005982487,0.0019754455,0.006854644,0.013445433,2.9203267,0.0046040853,0.0
0.41361696,0.808674,0.056246243,0.0500605,0.005668084,0.05961039,0.046696357,0.006332096,0.0047238036,0.0029474034,0.006457016,2.9111533,0.0022180267,0.0
0.41361696,0.808674,0.08298676,0.0753137,0.006320001,0.08654356,0.0717569,0.009229119,0.0072341263,0.0032864003,0.0073933303,2.9053054,0.0025447689,0.0
0.4213284,1.3347472,0.074589744,0.065306775,0.005078963,0.07682861,0.063067906,0.008481404,0.0060678325,0.0026410606,0.0068803504,2.9073753,0.002366516,0.0
0.42485434,0.5157629,0.044216458,0.030123694,0.012924203,0.05189035,0.022449799,0.0056977463,0.0020336283,0.006720585,0.014720276,2.914749,0.005050272,0.0
0.42662036,2.888058,0.08157267,0.07627777,0.011577792,0.09080185,0.067048594,0.008896559,0.0075198845,0.006020451,0.011876628,2.905356,0.0040878393,0.0
0.42662036,2.888058,0.014556701,0.03131214,0.01484351,0.03997895,0.0058898926,0.00020697241,0.0045633866,0.0077186245,0.01704453,2.917951,0.0058412664,0.0
0.4290758,2.4259288,0.062558524,0.0783636,0.01044625,0.0835597,0.05736243,0.00527329,0.009382608,0.0054320497,0.013098635,2.90726,0.0045054913,0.0
0.43339223,1.9066411,0.05190535,0.070008025,0.012665685,0.07652416,0.045389213,0.0039861463,0.008692843,0.006586156,0.015567474,2.909398,0.005350754,0.0
0.43339223,1.9066411,0.086193286,0.08298785,0.013483161,0.098168656,0.07101248,0.009214124,0.008380712,0.007011243,0.013578087,2.9040816,0.0046755183,0.0
0.43490112,2.665775,0.021891717,0.041864328,0.009472327,0.045642152,0.018113894,0.00071887457,0.005911753,0.0049256096,0.013764129,2.9159393,0.004720307,0.0
0.43811676,0.31359446,0.07022426,0.046546455,0.01706915,0.079158306,0.03761241,0.009150191,0.002993962,0.008875957,0.020772949,2.9099765,0.007138528,0.0
0.44214192,1.4281822,0.04933498,0.053582966,0.0064084525,0.05821024,0.044707708,0.0047994945,0.0059039705,0.003332395,0.0067512654,2.9115345,0.0023187997,0.0
0.44214192,1.4281822,0.01564731,0.010036458,0.00922479,0.022483833,0.003199935,0.0020649666,0.000606145,0.0047968905,0.009641949,2.9202216,0.0033017867,0.0
0.44253278,0.9867251,0.056725018,0.075854465,0.007083953,0.07819211,0.054387372,0.0044073043,0.00938096,0.003683655,0.011902368,2.9081984,0.0040926947,0.0
0.45412022,2.0406156,0.024455547,0.031139573,0.008828982,0.037237898,0.018357225,0.0020220226,0.0037598691,0.00459107,0.009440336,2.9168572,0.0032364754,0.0
0.45412022,2.0406156,0.08819973,0.09270176,0.011356298,0.10202799,0.07887351,0.008821612,0.00999214,0.0059052743,0.011577241,2.9027634,0.0039883517,0.0
0.45412022,2.0406156,0.024020828,0.044248976,0.0110600125,0.049122177,0.019147629,0.0009203705,0.006179688,0.005751206,0.014987274,2.9154315,0.005140671,0.0
0.45412022,2.0406156,0.07718874,0.07981582,0.0134304445,0.09199681,0.06500775,0.007822716,0.008505756,0.0069838306,0.013494529,2.905451,0.0046445555,0.0
0.45412022,2.0406156,0.065643355,0.056715813,0.009582564,0.07175081,0.05060836,0.007523256,0.0052020955,0.004982933,0.0105712265,2.9093478,0.0036335383,0.0
0.45412022,2.0406156,0.031349417,0.027814694,0.002963343,0.033032414,0.026131697,0.003536047,0.0026170195,0.0015409382,0.0034503583,2.9164557,0.0011830656,0.0
0.45412022,2.0406156,0.049914714,0.037398048,0.0103126,0.055719398,0.03159336,0.0061674295,0.0029130962,0.0053625517,0.012063019,2.9132898,0.0041406862,0.0
0.46666667,0.0,0.062295683,0.07407549,0.010492518,0.0802182,0.056152966,0.0055599245,0.008622675,0.0054561086,0.012032619,2.9077718,0.0041380893,0.0
0.46666667,0.0,0.056892816,0.07846323,0.012210869,0.08396992,0.051386118,0.0042343605,0.009842666,0.0063496516,0.016291901,2.907886,0.0056026615,0.0
0.46666667,0.0,0.0069738193,0.010589292,0.008184725,0.01716354,0.00039957277,0.00044327023,0.0013832931,0.0042560566,0.008381983,2.9211347,0.0028694272,0.0
0.47093776,0.7097313,0.052231003,0.045618474,0.003398794,0.05366638,0.044183094,0.0059478004,0.004228544,0.0017673727,0.0047416426,2.9121046,0.0016282528,0.0
0.47093776,0.7097313,0.07338736,0.071589895,0.015345495,0.08786042,0.057116836,0.0077724867,0.0073051453,0.007979657,0.015371792,2.9068038,0.005288211,0.0
0.4714486,1.1647762,0.09180487,0.0870037,0.010640636,0.10031235,0.07849622,0.009922195,0.008673893,0.0055331304,0.010908067,2.9029987,0.003757517,0.0
0.4714486,1.1647762,0.06855005,0.036011573,0.006753686,0.06989616,0.034665465,0.009667206,0.0012072021,0.0035119164,0.017615348,2.9113495,0.0060505783,0.0
0.4739485,0.906149,0.016707225,0.03433168,0.012271471,0.04062721,0.010411695,0.00036284357,0.004945202,0.0063811643,0.015107758,2.9173696,0.005178555,0.0
0.4739485,0.906149,0.08148504,0.068906896,0.010270277,0.08723885,0.06315309,0.009455538,0.0061852206,0.0053405436,0.01204288,2.906195,0.0041438653,0.0
0.47405165,2.2980247,0.022964679,0.037091948,0.010373843,0.042578675,0.017477952,0.0012863993,0.0049594888,0.005394398,0.012550361,2.9163554,0.0043034405,0.0
0.47742155,3.0,0.037662186,0.036157526,0.011732448,0.0486664,0.025153313,0.00403423,0.003643019,0.0061008725,0.011756543,2.9148073,0.0040333862,0.0
0.47742155,3.0,0.057654165,0.030719185,0.0038696483,0.058199078,0.03017427,0.00809696,0.0010938667,0.002012217,0.014012404,2.9131703,0.0048100185,0.0
0.47742155,3.0,0.045775224,0.055865344,0.01386327,0.06557301,0.03606756,0.0039735935,0.006597024,0.0072088996,0.014752723,2.911678,0.0050667427,0.0
0.48217514,0.41682023,0.012711806,0.014637015,0.009123625,0.022848675,0.004500145,0.0011718613,0.0016724156,0.004744285,0.009174265,2.9200342,0.0031418349,0.0
0.48217514,0.41682023,0.033646457,0.0416271,0.010146223,0.048539463,0.026734095,0.0028767409,0.004951708,0.0052760355,0.010902684,2.9146438,0.0037406576,0.0
0.48570234,2.7777169,0.055034883,0.07629592,0.007580809,0.07872207,0.052608732,0.0040652663,0.009593135,0.0039420202,0.0130566675,2.9083388,0.00448939,0.0
0.48596805,1.5430629,0.0004248312,0.0005675861,0.0038175615,0.0043144375,-0.0033220202,3.3047556e-05,7.016383e-05,0.0019851318,0.0038182288,2.9229987,0.0013062712,0.0
0.48596805,1.5430629,0.050169665,0.027496172,0.014956589,0.05760048,0.020065356,0.0069861766,0.0010910691,0.0077774255,0.018767562,2.9143748,0.0064396528,0.0
0.49226215,1.2582113,0.03363402,0.06745744,0.011748326,0.0711377,0.029953763,0.0008597114,0.009653798,0.0061091287,0.020591967,2.9117398,0.007072049,0.0
0.4939831,2.555434,0.03621106,0.017657967,0.009207456,0.040004767,0.013864257,0.0052130907,0.00038928745,0.0047878767,0.0130702555,2.9170513,0.0044806395,0.0
0.4939831,2.555434,0.081670456,0.087696396,0.012340345,0.09738626,0.07198059,0.008023703,0.009590447,0.0064169792,0.012702838,2.9040606,0.004374164,0.0
0.50286436,1.0842001,0.044636134,0.044389654,0.0061262203,0.050640352,0.038385436,0.004661382,0.0045972983,0.0031856343,0.006127458,2.9130971,0.002103417,0.0
0.50669605,1.6770372,0.036690075,0.07012754,0.017899947,0.07790215,0.028915461,0.0012076454,0.009901385,0.009307971,0.024493346,2.9110959,0.008413789,0.0
0.510725,0.1032258,0.05040202,0.07308485,0.015538621,0.08098081,0.04250607,0.0034725487,0.009370084,0.008080082,0.01923737,2.909221,0.00661255,0.0
0.510725,0.1032258,0.05652949,0.062758386,0.0054790387,0.065946296,0.053341586,0.0053932117,0.007012726,0.0028491,0.006302355,2.9096932,0.002165986,0.0
0.5130757,1.3516463,0.0170533,0.018644903,0.006943036,0.024837596,0.010860609,0.0016493979,0.0020632148,0.0036103784,0.0069884937,2.919095,0.0023940618,0.0
0.5130757,1.3516463,0.070658594,0.05556238,0.004560261,0.07192921,0.054291762,0.008525997,0.004600982,0.0023713354,0.008818723,2.9089134,0.0030316212,0.0
0.51902753,2.1701205,0.039168358,0.026028266,0.013247548,0.047385573,0.017811054,0.0050984356,0.0016820123,0.006888724,0.0147872595,2.9157772,0.005071464,0.0
0.51902753,2.1701205,0.05225403,0.045206826,0.0070181326,0.05658345,0.0408774,0.0059841,0.0041518277,0.0036494285,0.007853024,2.9121482,0.002696643,0.0
0.5274241,1.8110116,0.026937943,0.022610169,0.009250957,0.03427472,0.015273392,0.0031391121,0.0020138908,0.004810497,0.009500664,2.9175372,0.0032563985,0.0
0.52825856,0.6107886,0.04800446,0.022506377,0.0128501505,0.053356923,0.017153913,0.006981313,0.0003518126,0.0066820774,0.018101506,2.9151795,0.0062093968,0.0
0.52825856,0.6107886,0.03917461,0.055067487,0.0073328693,0.05793386,0.036308236,0.0028345142,0.006966662,0.0038130917,0.010812812,2.9125104,0.00371254,0.0
0.5341922,0.81248,0.061083168,0.07465824,0.0047312067,0.07614446,0.059596956,0.0052937935,0.008823311,0.0024602273,0.008273751,2.9078426,0.0028453227,0.0
0.5341922,0.81248,0.016838035,0.022769138,0.014606363,0.03470796,0.004899214,0.0012885293,0.0028306162,0.007595308,0.014904372,2.9186554,0.005106589,0.0
0.53428006,1.0036241,0.07187782,0.048694,0.009784747,0.07545541,0.045116413,0.009283631,0.0032558371,0.005088068,0.015169499,2.9095488,0.0052136946,0.0
0.53428006,1.0036241,0.062356234,0.068739355,0.0065390533,0.07282414,0.058271445,0.0059871636,0.007646776,0.0034003074,0.007276349,2.9083652,0.0025018689,0.0
0.5365035,2.889659,0.084395744,0.07633386,0.0046777823,0.08653976,0.07418984,0.009405984,0.007309893,0.0024324465,0.0061749592,2.9050322,0.0021256078,0.0
0.5365035,2.889659,0.05890465,0.06758996,0.010280357,0.07440725,0.052087363,0.005448629,0.0077068084,0.005345785,0.011159943,2.9088826,0.0038365053,0.0
0.53895897,2.4275298,0.068565935,0.05705332,0.0095422845,0.0739537,0.051665563,0.008028841,0.0050355606,0.0049619875,0.01114407,2.908981,0.0038309186,0.0
0.5447843,2.667376,0.047594238,0.07248901,0.0028747902,0.07281667,0.047266573,0.003008008,0.009480648,0.0014948908,0.012775049,2.9096038,0.004390649,0.0
0.5481521,1.9449859,0.05914561,0.054685872,0.009532858,0.06670593,0.047125556,0.006499002,0.00533947,0.0049570855,0.009790186,2.910307,0.0033639702,0.0
0.5481521,1.9449859,0.05672381,0.06863803,0.010866933,0.07507355,0.050288282,0.004969967,0.008067662,0.0056508044,0.012392633,2.9090102,0.0042600855,0.0
0.5547834,0.2064516,0.07325791,0.042810358,0.005779194,0.07431794,0.041750327,0.009993729,0.0020773686,0.0030051807,0.016283806,2.9100554,0.005595703,0.0
0.5547834,0.2064516,0.011542145,0.017487606,0.013438891,0.02827863,0.0007511219,0.00073663704,0.0022824567,0.0069882227,0.013763754,2.919845,0.0047138645,0.0
0.5569018,1.4665269,0.05788446,0.07938049,0.008679578,0.0824475,0.054817453,0.004343292,0.00993226,0.00451338,0.013815023,2.9076712,0.004751233,0.0
0.56319594,1.1816752,0.03979319,0.043564063,0.017515313,0.059295125,0.024062127,0.003844363,0.00482479,0.009107962,0.0176165,2.9137347,0.0060460204,0.0
0.56319594,1.1816752,0.053280115,0.030710256,0.015713854,0.06134137,0.022649001,0.0073015797,0.0014334174,0.008171204,0.019346185,2.9136634,0.006639815,0.0
0.5833333,0.0,0.03327109,0.01703363,0.0067883017,0.03573512,0.014569598,0.0047267145,0.00050497544,0.0035299165,0.01058276,2.917452,0.003627398,0.0
0.58393484,2.2996256,0.07808205,0.08392184,0.011931677,0.0932857,0.06871819,0.0076650274,0.009183374,0.0062044715,0.012283757,2.9048889,0.0042286497,0.0
0.58393484,2.2996256,0.011526939,0.0066721137,0.0013581427,0.011881052,0.0063180006,0.0015774779,0.00031522333,0.00070623413,0.0027815255,2.9210632,0.00095223053,0.0
0.58400947,1.2751102,0.06446467,0.053783555,0.014315616,0.07440346,0.043844767,0.007537452,0.0047603617,0.00744412,0.015279345,2.9098103,0.0052509764,0.0
0.58400947,1.2751102,0.06732179,0.058776915,0.0058906125,0.07032624,0.05577247,0.007667966,0.0054462976,0.0030631183,0.007276885,2.9089272,0.0025015702,0.0
0.5855794,0.5118459,0.026931835,0.011626526,0.010331762,0.03213641,0.006421948,0.0039947242,1.5344598e-05,0.005372516,0.012857231,2.9187734,0.004405012,0.0
0.5855794,0.5118459,0.020789841,0.022206975,0.011405585,0.032925982,0.010070834,0.0020516065,0.0024200617,0.005930904,0.011427574,2.9182742,0.0039158673,0.0
0.5879387,2.068831,0.052406516,0.063706726,0.009033379,0.06871146,0.047401782,0.004568861,0.0075069144,0.004697357,0.010654839,2.9100504,0.0036613932,0.0
0.5879387,2.068831,0.03606968,0.030830795,0.013556304,0.047257297,0.01964318,0.0041598794,0.0027977691,0.0070492774,0.013807058,2.9155855,0.004735604,0.0
0.5883772,3.0,0.04858177,0.06461648,0.009133317,0.068752125,0.044446126,0.0038017961,0.00797082,0.004749324,0.012153,2.9103782,0.004175746,0.0
0.59151304,0.7135373,0.05019219,0.044450507,0.010629579,0.058331784,0.036310915,0.005667838,0.004175001,0.005527381,0.0110104345,2.9124653,0.0037804516,0.0
0.5945238,0.9099551,0.061978202,0.05029895,0.010813019,0.0684277,0.04384945,0.007356714,0.0043201083,0.0056227697,0.012289124,2.910482,0.0042223674,0.0
0.59461164,1.1010993,0.03976358,0.0682927,0.006901378,0.06987448,0.038181793,0.0019101403,0.009327712,0.003588716,0.015846344,2.9109566,0.0054436894,0.0
0.59461164,1.1010993,0.070678785,0.069003835,0.010553252,0.080427736,0.05925488,0.007481239,0.0070457514,0.0054876907,0.0105864275,2.9073994,0.0036412016,0.0
0.59558547,2.7793179,0.08995408,0.08515841,0.007900228,0.09581234,0.07930014,0.009729285,0.0084824115,0.004108118,0.0082561,2.9034145,0.002843583,0.0
0.59558547,2.7793179,0.027193772,0.058181923,0.013254244,0.063077584,0.022298113,0.00041107624,0.008467995,0.006892206,0.020389736,2.9135075,0.0069983467,0.0
0.5988418,0.3096774,0.06788876,0.06732303,0.01017294,0.07778277,0.057429027,0.0071045565,0.0069574676,0.005289928,0.010176873,2.9079022,0.00349973,0.0
0.5988418,0.3096774,0.016653415,0.013585386,0.011265725,0.026489086,0.0037497142,0.0019712613,0.0011735735,0.0058581764,0.011369687,2.9197092,0.003894116,0.0
0.600728,1.5814075,0.057450622,0.029052999,0.013806586,0.06305656,0.023447063,0.008189878,0.0008064971,0.007179424,0.019804748,2.9133806,0.006797858,0.0
0.600728,1.5814075,0.048038587,0.069208115,0.002135644,0.06942142,0.047825284,0.0033447894,0.008848866,0.0011105348,0.010798067,2.9099228,0.0037107742,0.0
0.6038662,2.557035,0.04276699,0.03959296,0.004829522,0.046263564,0.036096383,0.0046953405,0.0038700928,0.0025113514,0.0050835907,2.9138467,0.0017446321,0.0
0.6038662,2.557035,0.07744624,0.07368301,0.012060098,0.087770626,0.06335862,0.008347939,0.0073695,0.0062712505,0.012206003,2.906112,0.0042001144,0.0
0.62145597,1.7153819,0.027652299,0.030867888,0.0077075367,0.037133537,0.02138665,0.0026250228,0.0034610757,0.0040079188,0.007873444,2.9165282,0.0026995947,0.0
0.6273917,0.1032258,0.061494257,0.042484365,0.008559728,0.06478044,0.039198183,0.007878173,0.0029356016,0.0044510583,0.012791127,2.911415,0.0043934397,0.0
0.6278356,1.3899909,0.023756174,0.029585207,0.018222433,0.045124725,0.008216655,0.0020159774,0.0035315256,0.009475664,0.018454034,2.9171107,0.0063261343,0.0
0.64218396,1.8493562,0.023969648,0.01828086,0.0068058698,0.028501596,0.01374891,0.0029365686,0.0014574836,0.0035390519,0.007376343,2.918358,0.0025275662,0.0
0.64218396,1.8493562,0.06747751,0.049682423,0.016560217,0.07737909,0.03978084,0.008405676,0.003778955,0.008611312,0.018799126,2.9099326,0.0064603304,0.0
0.64290017,0.4129032,0.014029075,0.025131293,0.008022978,0.02933636,0.009824007,0.0005930508,0.003479627,0.004171948,0.009756176,2.9187057,0.0033426378,0.0
0.64290017,0.4129032,0.027876738,0.062117983,0.008829547,0.06426071,0.025734011,0.0002283635,0.009131086,0.004591364,0.019263348,2.912988,0.006612917,0.0
0.64290017,0.4129032,0.056697957,0.06750537,0.012369817,0.07560027,0.048603054,0.0050536087,0.007863535,0.006432304,0.013498606,2.9091403,0.004640067,0.0
0.64290017,0.4129032,0.035759687,0.06187498,0.010053902,0.06529711,0.032337554,0.0016820147,0.008471989,0.0052280286,0.016479779,2.9121287,0.005659015,0.0
0.64290017,0.4129032,0.026424931,0.056285065,0.012308121,0.060704336,0.022005664,0.00041910235,0.008182736,0.006400222,0.019349337,2.9138074,0.0066405684,0.0
0.64290017,0.4129032,0.011558153,0.006543027,0.0118634375,0.021176143,-0.0030749626,0.0015932275,0.0002892949,0.0061689867,0.012125553,2.9210744,0.0041510593,0.0
0.64745915,2.889659,0.03793788,0.049340203,0.012830752,0.057679392,0.02959869,0.003056158,0.0060207616,0.0066719903,0.014040351,2.9132936,0.004819408,0.0
0.6488339,0.6145946,0.05737335,0.049542155,0.015760716,0.06969758,0.037217923,0.0065776603,0.0045415503,0.008195572,0.01623983,2.911085,0.0055786176,0.0
0.6488421,2.4291308,0.049682368,0.06942416,0.0037695651,0.07011945,0.048987083,0.0036271058,0.008759971,0.0019601737,0.010566182,2.9097137,0.0036313478,0.0
0.6488421,2.4291308,0.042298846,0.045117497,0.015238665,0.05901187,0.028404474,0.0041792244,0.0049120737,0.007924105,0.015303697,2.913278,0.005253085,0.0
0.652846,2.1983361,0.039273992,0.037979532,0.008008297,0.04666117,0.030592352,0.0041854624,0.003848903,0.004164314,0.008034408,2.914421,0.0027567768,0.0
0.65466744,2.6689768,0.05149791,0.028095271,0.012432142,0.05686935,0.022723833,0.0071811876,0.0010965021,0.0064647133,0.01707276,2.9141579,0.005858557,0.0
0.65466744,2.6689768,0.0034349738,0.00289693,0.009458256,0.012628033,-0.006296129,0.00039920464,0.00025931327,0.0049182926,0.009462081,2.922398,0.0032377795,0.0
0.6547675,0.81628597,0.05441642,0.053937256,0.0118919965,0.06607125,0.04228243,0.005696682,0.005572099,0.0061838375,0.0118944105,2.910923,0.0040861303,0.0
0.6547675,0.81628597,0.055041812,0.05774543,0.012100786,0.06856968,0.044217564,0.0055134655,0.006216406,0.0062924083,0.012176059,2.9104245,0.0041836025,0.0
0.6548554,1.0074301,0.02645119,0.047893044,0.009336005,0.05138828,0.022955954,0.0010784587,0.0066533405,0.004854722,0.014216162,2.9147484,0.0048773205,0.0
0.6549432,1.1985743,0.049956642,0.038830493,0.0020228885,0.05031302,0.03847412,0.00606333,0.003170531,0.001051902,0.005919449,2.9131238,0.0020319936,0.0
0.6549432,1.1985743,0.059788432,0.039775662,0.013952749,0.06695199,0.0326121,0.0077789924,0.0025756722,0.007255429,0.017169945,2.9119117,0.005896451,0.0
0.6549432,1.1985743,0.050807144,0.027185174,0.0157477,0.05868091,0.01931141,0.007126456,0.0009847438,0.008188803,0.01968475,2.914338,0.00675445,0.0
0.6549432,1.1985743,0.039424427,0.049857922,0.017586537,0.06298513,0.02629722,0.0032863272,0.0059990357,0.009144998,0.018343955,2.913068,0.0062971255,0.0
0.6549432,1.1985743,0.056313116,0.060805798,0.010900705,0.06968921,0.047429703,0.005506134,0.006674231,0.0056683663,0.011129752,2.9099371,0.0038247395,0.0
0.6549432,1.1985743,0.046162553,0.020890282,0.0038806393,0.046745013,0.02030782,0.0067721424,0.00020135194,0.0020179322,0.013218597,2.9155684,0.0045337975,0.0
0.6714501,0.2064516,0.029127108,0.043401554,0.016796254,0.054514103,0.01801456,0.001915812,0.005627168,0.008734051,0.018249772,2.9149525,0.0062607443,0.0
0.67166173,1.5048716,0.051864494,0.038741626,0.011590152,0.058621623,0.0319845,0.00641749,0.003005545,0.0060268785,0.013318561,2.9129193,0.0045722383,0.0
0.6819706,1.9732014,0.018260157,0.022985004,0.013112625,0.03394632,0.007298844,0.0015305179,0.0027589782,0.0068185646,0.013323738,2.918471,0.0045653144,0.0
0.69876933,1.313455,0.006661822,0.0042794966,0.0071825385,0.0127513,-0.0018099812,0.00087865075,0.00025924624,0.0037349197,0.0072806403,2.9218795,0.0024917661,0.0
0.69876933,1.313455,0.086202584,0.07682155,0.013158849,0.095481895,0.06754223,0.009696788,0.007257719,0.006842601,0.013969831,2.904774,0.0048092664,0.0
0.69933283,3.0,0.06993553,0.07509408,0.007558493,0.08050126,0.064528346,0.0068709273,0.00821215,0.003930416,0.007986456,2.906798,0.0027475099,0.0
0.7,0.0,0.05075457,0.07447864,0.005017414,0.07549614,0.04973707,0.0034279975,0.009596255,0.0026090553,0.012879534,2.9090245,0.004427441,0.0
0.70615464,0.5156519,0.05259417,0.031716436,0.014644257,0.060139302,0.024171304,0.0070982557,0.0016700458,0.007615013,0.017984,2.9136274,0.0061723744,0.0
0.70615464,0.5156519,0.043406677,0.06663678,0.0036485242,0.06719634,0.042847116,0.0027023458,0.008742172,0.0018972324,0.012174612,2.910733,0.004182662,0.0
0.7065411,2.7793179,0.034934588,0.02300807,0.008798578,0.03960032,0.018342339,0.0045634652,0.0014625705,0.00457526,0.010628991,2.916593,0.0036443174,0.0
0.7120883,0.7173433,0.081529886,0.085846715,0.0069520455,0.09096771,0.0764089,0.008142394,0.00926477,0.0036150634,0.0072794035,2.9042845,0.002506436,0.0
0.7137494,2.558636,0.037806388,0.03204109,0.009991179,0.045322455,0.024525022,0.004381557,0.00288258,0.005195413,0.010398717,2.915254,0.0035670018,0.0
0.7137494,2.558636,0.054867655,0.043199293,0.014831353,0.06497106,0.03309589,0.0066163675,0.0035825935,0.0077123027,0.015937585,2.91208,0.0054729213,0.0
0.7137494,2.558636,0.07487352,0.06379594,0.009985597,0.08075359,0.05791587,0.008650896,0.0057707257,0.00519251,0.011418859,2.9075134,0.003927362,0.0
0.7137494,2.558636,0.028850231,0.051884834,0.01585451,0.0599638,0.020771265,0.0012037249,0.0071927207,0.008244344,0.019596267,2.9140296,0.0067248004,0.0
0.7137494,2.558636,0.078146145,0.05864903,0.009481732,0.08199677,0.054798413,0.009647973,0.004578723,0.0049305,0.013599178,2.9077241,0.004676915,0.0
0.7137494,2.558636,0.06714116,0.04333487,0.012379351,0.072411634,0.038064398,0.008839571,0.0026499352,0.006437262,0.017173618,2.9106843,0.0059001995,0.0
0.7150991,0.9137611,0.04841173,0.040360514,0.009224283,0.05445056,0.034321684,0.005662814,0.003569498,0.0047966265,0.010064438,2.9131255,0.0034548591,0.0
0.71518695,1.1049052,0.070090584,0.053689834,0.010352712,0.0750972,0.04868321,0.008568678,0.0043044835,0.0053834096,0.013206996,2.909188,0.0045397533,0.0
0.71518695,1.1049052,0.09306111,0.089919716,0.004335689,0.09610185,0.086878985,0.009923384,0.00910662,0.002254558,0.0046114326,2.9025295,0.0015887634,0.0
0.71548784,1.6197523,0.043945678,0.052410383,0.012251727,0.061140195,0.03521587,0.003910103,0.006110926,0.0063708974,0.0129621625,2.9122725,0.004450876,0.0
0.71548784,1.6197523,0.08321509,0.08241925,0.001917421,0.08477544,0.08085889,0.0087164445,0.008509524,0.0009970588,0.0019582734,2.9044805,0.000674225,0.0
0.71550846,0.3096774,0.046228293,0.06303626,0.006268885,0.06511683,0.044147722,0.0034967205,0.007866791,0.00325982,0.010484554,2.9108207,0.0036019236,0.0
0.71550846,0.3096774,0.05999225,0.064767316,0.00356676,0.06667188,0.058087688,0.005866738,0.0071082553,0.001854715,0.004292095,2.909078,0.0014754143,0.0
0.7177533,2.3278413,0.0675782,0.07456224,0.007373106,0.07922846,0.06291197,0.006483376,0.008299227,0.0038340148,0.008158244,2.9071229,0.002806295,0.0
0.7217572,2.0970466,0.043371987,0.021115653,0.008970112,0.04653714,0.017950498,0.00624668,0.00046003363,0.0046644574,0.0142933205,2.915857,0.004901928,0.0
0.7217572,2.0970466,0.06824896,0.03753089,0.0031587838,0.06857042,0.037209433,0.0094938995,0.0015072032,0.0016425675,0.015680494,2.9112127,0.0053862412,0.0
0.7362159,1.7537266,0.052715782,0.026762635,0.0049005332,0.05361028,0.025868133,0.0075067854,0.0007589685,0.0025482771,0.013871074,2.914171,0.0047598695,0.0
0.7362159,1.7537266,0.077075265,0.06526374,0.0062981797,0.07980345,0.062535554,0.008937125,0.0058661294,0.003275053,0.008633949,2.9071007,0.0029699518,0.0
0.7425955,1.4283357,0.08004259,0.065160334,0.014399177,0.0888097,0.056393236,0.009485244,0.0056158584,0.0074875713,0.016208231,2.9067786,0.0055760117,0.0
0.7425955,1.4283357,0.06137745,0.03140931,0.01049095,0.06468497,0.028101785,0.008720769,0.00092905294,0.0054552937,0.018291593,2.912674,0.00628,0.0
0.7440584,0.1032258,0.0071605123,0.012978609,0.009318529,0.019831605,0.00030751433,0.0002908817,0.0018035866,0.0048456346,0.009762045,2.920845,0.003342199,0.0
0.7584148,2.889659,0.036691982,0.016739642,0.0071594184,0.038995113,0.01443651,0.005372248,0.00018464008,0.0037228973,0.012279302,2.9171004,0.00420942,0.0
0.7656231,2.6689768,0.021428626,0.018075436,0.0063441154,0.02631395,0.013190113,0.0024901256,0.0016182964,0.0032989397,0.006561918,2.918667,0.0022482586,0.0
0.7656231,2.6689768,0.08378263,0.089842364,0.01353831,0.10068571,0.072939284,0.008240732,0.009816264,0.007039921,0.013873212,2.9035816,0.004777965,0.0
0.769143,0.4137639,0.037838556,0.03854929,0.010480466,0.048680414,0.027707431,0.0038797723,0.0040645623,0.0054498417,0.010486491,2.9145186,0.0035980183,0.0
0.769143,0.4137639,0.02860159,0.01584262,0.013053516,0.036751114,0.007693096,0.003969765,0.0006524325,0.0067878277,0.014529008,2.9181113,0.004978908,0.0
0.7694091,0.6184006,0.080622315,0.07952193,0.013655363,0.09373856,0.06640568,0.008470549,0.00818445,0.007100788,0.0136664435,2.905098,0.004704297,0.0
0.7694091,0.6184006,0.06350823,0.065926686,0.013261791,0.07803427,0.05140065,0.0064162146,0.0070450143,0.0068961307,0.013316808,2.908552,0.004578501,0.0
0.7738791,1.2152267,0.08241424,0.07808175,0.0045103007,0.08525154,0.07524446,0.008909014,0.007782567,0.0023453562,0.0050035417,2.9050584,0.0017223549,0.0
0.7738791,1.2152267,0.055754796,0.07755055,0.004354801,0.07838843,0.05491691,0.004098429,0.009765325,0.0022644964,0.01173576,2.9081166,0.004035519,0.0
0.77534276,0.82009196,0.03767338,0.041535005,0.012019614,0.051777903,0.027430486,0.0036168243,0.004620847,0.0062501985,0.0121737085,2.9142013,0.004177374,0.0
0.77534276,0.82009196,0.04618409,0.057436295,0.009039339,0.062457383,0.041162997,0.0039254725,0.006851046,0.004700456,0.010647193,2.9114554,0.0036570001,0.0
0.7754306,1.0112362,0.0578259,0.07238847,0.0068275966,0.07508882,0.05512554,0.004878012,0.00866428,0.00355035,0.009981642,2.9084644,0.0034319283,0.0
0.7754306,1.0112362,0.03749538,0.050345402,0.0033668617,0.051174115,0.036666665,0.002897217,0.006238223,0.0017507679,0.007253725,2.9132304,0.002489925,0.0
0.77600247,1.8775717,0.06626784,0.055941105,0.010552682,0.07285264,0.049356304,0.00769734,0.0050123883,0.005487394,0.011748169,2.9093647,0.004038053,0.0
0.78266054,2.4573462,0.024096439,0.04210248,0.003129134,0.042630766,0.02356815,0.0011015583,0.005783128,0.0016271495,0.009531308,2.9156644,0.0032690002,0.0
0.78266054,2.4573462,0.039413992,0.04504409,0.00021888965,0.045052588,0.039405495,0.0036599068,0.0051237326,0.00011382261,0.0028235465,2.9136107,0.00096908846,0.0
0.7864216,1.5432162,0.047407046,0.04626002,0.015961165,0.062805,0.030862069,0.0050198,0.0047215736,0.008299805,0.015971463,2.912575,0.005483623,0.0
0.7864216,1.5432162,0.07633594,0.06768084,0.014430052,0.08707338,0.05694339,0.008614033,0.0063637095,0.007503626,0.015064994,2.9069118,0.0051824735,0.0
0.7866644,2.2265515,0.023781057,0.041432228,0.00808235,0.044573903,0.020639382,0.0010964383,0.0056857425,0.0042028213,0.01196726,2.9157753,0.004104315,0.0
0.78811675,0.2064516,0.0096956985,0.017143462,0.009372519,0.023504786,0.0033343723,0.0004274271,0.0023638452,0.0048737098,0.0100852065,2.9200914,0.0034537297,0.0
0.78811675,0.2064516,0.026909519,0.038538255,0.00989904,0.044204213,0.021243565,0.0018915484,0.004915019,0.0051475,0.011480324,2.915749,0.0039373497,0.0
0.8102884,3.0,0.051597573,0.024699122,0.011035182,0.055545382,0.02075131,0.007464226,0.000470629,0.0057382938,0.017397035,2.9145288,0.0059690727,0.0
0.81578904,2.001417,0.029478263,0.04551997,0.018226024,0.057411976,0.017586254,0.0018144858,0.0059853294,0.009477532,0.019912861,2.9146748,0.0068319323,0.0
0.81666666,0.0,0.06997326,0.045033503,0.011806323,0.07467566,0.040331103,0.00922252,0.0027381822,0.0061392873,0.017172277,2.9101748,0.0059007714,0.0
0.8174967,2.7793179,0.03847965,0.017479472,0.003251088,0.03897144,0.01698768,0.0056398963,0.00017985122,0.0016905656,0.01099188,2.9168162,0.0037684513,0.0
0.8174967,2.7793179,0.037431203,0.01851236,0.006926873,0.03969621,0.016247354,0.0053685145,0.00044961533,0.0036019734,0.011724427,2.916818,0.004019595,0.0
0.8177053,1.3301073,0.08093593,0.08780197,0.00980034,0.09475318,0.07398472,0.007881785,0.009666955,0.005096176,0.010384232,2.9041314,0.0035756757,0.0
0.82683784,2.57037,0.070274845,0.058866143,0.0040511996,0.07156705,0.057573937,0.008198461,0.0052322,0.0021066237,0.006996557,2.908585,0.0024054847,0.0
0.82683784,2.57037,0.042501207,0.07200711,0.009872748,0.0750058,0.039502516,0.0021186643,0.009790199,0.005133828,0.017751642,2.9102309,0.0060997363,0.0
0.83024776,1.6580969,0.059043113,0.03167999,0.0150392745,0.06569293,0.025030175,0.008274807,0.001160395,0.007820422,0.020331379,2.9129062,0.0069797575,0.0
0.83024776,1.6580969,0.055245057,0.04866741,0.008878739,0.061424516,0.04248795,0.006258542,0.0045483527,0.0046169437,0.0094682835,2.9114227,0.0032521156,0.0
0.83024776,1.6580969,0.036417913,0.03367559,0.011416293,0.04654509,0.02354841,0.004001363,0.0032883598,0.0059364717,0.0114983395,2.9152265,0.0039442354,0.0
0.83024776,1.6580969,0.053414296,0.07045048,0.009524056,0.07470992,0.049154848,0.004226264,0.00865567,0.0049525085,0.012777537,2.9091785,0.004392146,0.0
0.83024776,1.6580969,0.072760254,0.06883355,0.016548218,0.08746119,0.054132625,0.007873348,0.0068524056,0.008605072,0.016664281,2.9071844,0.0057321033,0.0
0.83024776,1.6580969,0.04958819,0.060654376,0.009109211,0.065779276,0.044463284,0.0042940085,0.007171217,0.0047367895,0.010657996,2.9107106,0.0036616474,0.0
0.83239746,0.51651263,0.09116289,0.09276159,0.0067726662,0.09878191,0.08514257,0.009356241,0.009771903,0.003521786,0.006819673,2.9024231,0.0023496482,0.0
0.8326636,0.72114927,0.04277189,0.067402974,0.0025392075,0.067662016,0.04251285,0.0025270516,0.008931133,0.0013203877,0.012574583,2.9107182,0.004320096,0.0
0.8326636,0.72114927,0.061470397,0.0595606,0.006284665,0.0668723,0.054158706,0.0065418845,0.0060453373,0.0032680253,0.0063567962,2.9094973,0.0021848434,0.0
0.83412284,1.1215576,0.080268875,0.07591825,0.014064683,0.09232547,0.063861646,0.00868731,0.007556148,0.0073136343,0.014231913,2.905543,0.0048981938,0.0
0.83567435,0.9175671,0.061274033,0.027297221,0.0057968823,0.062235825,0.026335424,0.009022689,0.00018871944,0.0030143785,0.0179502,2.9131482,0.0061617875,0.0
0.83567435,0.9175671,0.061990142,0.03642902,0.0084986985,0.06455789,0.033861272,0.00844074,0.0017948508,0.0044193226,0.015348308,2.9120405,0.0052706366,0.0
0.8417513,0.3105381,0.036210377,0.019512724,0.013865263,0.044046372,0.011676729,0.0050682956,0.00072690606,0.007209936,0.016184822,2.9168427,0.005548747,0.0
0.85157174,2.3560567,0.06592757,0.03438396,0.011318031,0.069568336,0.0307432,0.009316868,0.0011155299,0.0058853757,0.019412568,2.9118276,0.0066667986,0.0
0.85157174,2.3560567,0.080881886,0.08927612,0.01133162,0.09716293,0.07299507,0.007756965,0.009939466,0.0058924416,0.012083933,2.9039717,0.0041611744,0.0
0.8555756,2.125262,0.07220568,0.082526945,0.009815082,0.0884554,0.06627721,0.006704331,0.009387859,0.0051038424,0.011089094,2.9057066,0.0038163157,0.0
0.8555756,2.125262,0.023241837,0.0313316,0.013630903,0.041505106,0.013068329,0.0017861495,0.003889487,0.007088069,0.014218388,2.9169722,0.0048743654,0.0
0.86072505,0.1032258,0.06210023,0.04827969,0.0068336194,0.064908504,0.04547141,0.0075364253,0.003943085,0.0035534818,0.009718547,2.9106953,0.003338909,0.0
0.86072505,0.1032258,0.01184698,0.007888836,0.009621195,0.01969054,4.5276247e-05,0.001540821,0.00051170355,0.0050030206,0.009822631,2.9208903,0.0033628894,0.0
0.8615314,1.444988,0.06591253,0.07154551,0.008608689,0.07778673,0.05967131,0.0064155296,0.007880105,0.0044765174,0.00905771,2.9076495,0.0031151313,0.0
0.8693704,2.889659,0.033863362,0.033898912,0.0065846858,0.040465847,0.027296426,0.0035190159,0.0035282597,0.0034240363,0.0065847104,2.9154887,0.002258527,0.0
0.8693704,2.889659,0.04579381,0.045972526,0.013425289,0.059308752,0.032457583,0.0047486154,0.004795082,0.0069811493,0.013425585,2.9127889,0.0046091857,0.0
0.87003434,1.7819421,0.06152543,0.07883049,0.004016308,0.07971719,0.060638722,0.0050488496,0.009548164,0.00208848,0.0095392335,2.9073236,0.0032811048,0.0
0.87003434,1.7819421,0.079584405,0.06957005,0.01459496,0.09000722,0.059147235,0.009057896,0.0064541646,0.0075893784,0.015429994,2.906334,0.005309092,0.0
0.8787115,2.6807108,0.07493623,0.05501503,0.009884537,0.07900837,0.050942898,0.00934722,0.004167709,0.005139959,0.014032736,2.908494,0.004824743,0.0
0.89281505,1.2318791,0.067382194,0.040127955,0.0044658603,0.06809531,0.03941484,0.009133577,0.0020474764,0.0023222473,0.014340235,2.911018,0.0049261926,0.0
0.89281505,1.2318791,0.03267334,0.018916227,0.011743875,0.03940482,0.012184746,0.004471082,0.00089423236,0.0061068144,0.013610037,2.9173076,0.0046652732,0.0
0.89436656,1.0278885,0.051182795,0.05072915,0.009224674,0.060183436,0.04172851,0.0053583942,0.005240447,0.00479683,0.009227462,2.9116476,0.003169155,0.0
0.8953858,0.41462463,0.021172268,0.028424725,0.0047287643,0.030757587,0.018839408,0.0016362242,0.0035218624,0.0024589573,0.00595909,2.9175317,0.0020425108,0.0
0.8953858,0.41462463,0.0070283627,0.004728605,0.017166596,0.023083549,-0.011326581,0.0009103307,0.0003123938,0.008926629,0.017205065,2.921788,0.00588854,0.0
0.89565194,0.6192613,0.014166385,0.020579157,0.0077390843,0.025749784,0.008995759,0.0009731076,0.0026404283,0.0040243235,0.008377012,2.9192023,0.0028696235,0.0
0.89574903,2.4690802,0.050219107,0.024581056,0.00477647,0.05108007,0.023720093,0.0072225546,0.00055666146,0.0024837642,0.013679989,2.9146972,0.0046934513,0.0
0.8959181,0.823898,0.069815405,0.036613606,0.008395202,0.07181744,0.034611568,0.009850541,0.0012180741,0.0043655047,0.018602937,2.9111395,0.0063902596,0.0
0.8959181,0.823898,0.018598832,0.03881913,0.01310032,0.045256898,0.012161067,0.00035709504,0.005614372,0.0068121655,0.016547915,2.9166522,0.005673599,0.0
0.8959181,0.823898,0.035212785,0.047452886,0.0064425427,0.050218854,0.032446813,0.002707401,0.0058898274,0.003350122,0.008886021,2.9138124,0.00304962,0.0
0.8959181,0.823898,0.07790837,0.07040846,0.0062402673,0.081438735,0.066878095,0.008687462,0.0067374865,0.0032449388,0.00728032,2.9064283,0.0025049027,0.0
0.8959181,0.823898,0.02162297,0.038756322,0.0066492767,0.041034035,0.019345256,0.0009123873,0.0053670583,0.0034576235,0.01084439,2.9163191,0.0037185196,0.0
0.8959181,0.823898,0.0698589,0.057271894,0.0065187793,0.07262645,0.054504342,0.008247112,0.004974489,0.003389765,0.009061053,2.908811,0.0031150368,0.0
0.90535754,1.5598687,0.0186441,0.020437604,0.012013402,0.031587675,0.007494027,0.0017990927,0.0022654037,0.006246968,0.012046824,2.9187145,0.004127442,0.0
0.90535754,1.5598687,0.055077452,0.06434644,0.007412605,0.0684541,0.050969794,0.0050050733,0.0074150097,0.0038545541,0.008742154,2.909678,0.003004509,0.0
0.9098209,1.9057873,0.007114942,0.00767538,0.0029684932,0.010376851,0.0044134716,0.0006962397,0.00084195356,0.0015436163,0.0029816898,2.9214468,0.0010206209,0.0
0.9098209,1.9057873,0.065384224,0.052701518,0.0027013416,0.06593562,0.052150123,0.00778921,0.004491706,0.0014046975,0.006892748,2.9098284,0.0023687817,0.0
0.91435957,0.20731232,0.031247042,0.06078589,0.008159173,0.062889755,0.029143173,0.00094566203,0.008625762,0.0042427694,0.01687329,2.9127588,0.0057928897,0.0
0.92048293,2.2547672,0.053587742,0.040369056,0.012690371,0.06128675,0.032670047,0.0066041816,0.0031673238,0.0065989923,0.014308352,2.9125423,0.0049126674,0.0
0.92048293,2.2547672,0.044523574,0.051634047,0.00768558,0.05654686,0.039610766,0.0040758345,0.005924557,0.003996501,0.008468047,2.9122949,0.0029076887,0.0
0.9212441,3.0,0.013070199,0.019584255,0.009886981,0.026736867,0.0059175855,0.000851204,0.0025448587,0.00514123,0.01040964,2.9194374,0.0035656323,0.0
0.9212441,3.0,0.046012297,0.058199063,0.0065462044,0.06104895,0.04316241,0.0038347102,0.0070032696,0.003404026,0.008943271,2.911389,0.0030718227,0.0
0.9212441,3.0,0.054249328,0.04688144,0.013063511,0.0641384,0.036992367,0.0062166243,0.004300974,0.006793025,0.013573015,2.9117355,0.004661486,0.0
0.9305852,2.7910519,0.05960761,0.071481206,0.012035706,0.07896469,0.052124135,0.00527305,0.008360185,0.0062585664,0.013420276,2.908366,0.00461437,0.0
0.93333334,0.0,0.07067811,0.04550785,0.016127683,0.07854995,0.037636008,0.009313803,0.0027695347,0.008386394,0.020456972,2.9100423,0.007029785,0.0
0.93333334,0.0,0.086738296,0.090763964,0.013675895,0.102574356,0.0749279,0.008706779,0.009753454,0.0071114646,0.013823226,2.9031456,0.004761465,0.0
0.93333334,0.0,0.07308649,0.0820673,0.015630951,0.09384006,0.061313737,0.006900491,0.009235501,0.008128094,0.016263163,2.9056592,0.0055970647,0.0
0.93664116,1.3467597,0.06787763,0.045579903,0.008014927,0.07045961,0.04299792,0.008798495,0.0030010866,0.0041677617,0.013730846,2.9103491,0.0047179377,0.0
0.9399263,2.582104,0.008066364,0.013017161,0.009694988,0.020547781,0.00053574424,0.0004527396,0.0017399467,0.0050413935,0.010006018,2.920739,0.0034258515,0.0
0.9399263,2.582104,0.056365333,0.056036383,0.0036783416,0.059882876,0.05251884,0.005887652,0.0058021247,0.0019127375,0.0036820173,2.9104679,0.0012650946,0.0
0.9496075,2.0296326,0.053191774,0.053243276,0.010222495,0.06344005,0.042994995,0.005527927,0.0055413167,0.005315697,0.010222526,2.911139,0.0035115213,0.0
0.9496075,2.0296326,0.023879597,0.05015926,0.0021872844,0.050340064,0.02369879,0.0004336642,0.0072663757,0.0011373878,0.013320637,2.9147828,0.0045700273,0.0
0.9530587,1.1382099,0.06387282,0.050887767,0.0039304453,0.06496985,0.049790744,0.0076556066,0.004279493,0.0020438314,0.0075895544,2.9102025,0.0026079128,0.0
0.9546102,0.9342195,0.05635892,0.02576653,0.0076742275,0.058176093,0.023949357,0.008247533,0.0002935123,0.003990598,0.017113369,2.9138732,0.005873066,0.0
0.9546102,0.9342195,0.045771636,0.063304275,0.0089066345,0.06703501,0.042040896,0.0033927038,0.007951189,0.0046314495,0.012497058,2.910842,0.0042932797,0.0
0.9586403,0.5173733,0.030380832,0.05856067,0.012167,0.06308692,0.025854582,0.0009615789,0.008288336,0.0063268393,0.01861617,2.9131064,0.0063904873,0.0
0.9589064,0.72201,0.059396964,0.030365212,0.006494397,0.060783535,0.028978638,0.00844176,0.0008935049,0.003377086,0.015902448,2.9130142,0.005459104,0.0
0.9589064,0.72201,0.04756063,0.020934254,0.00895619,0.050292827,0.01820206,0.007023162,0.00010030497,0.0046572187,0.016045384,2.9154062,0.005503653,0.0
0.9646602,2.3677907,0.033961833,0.05361419,0.0050153006,0.054820105,0.03275592,0.0019991458,0.007108759,0.002607956,0.011032093,2.91326,0.0037868551,0.0
0.96797335,1.6900663,0.02679863,0.046853106,0.006775302,0.04892753,0.024724208,0.0012228081,0.0064369715,0.0035231567,0.012101661,2.9148262,0.004151761,0.0
0.96797335,1.6900663,0.03872137,0.04555766,0.0076154405,0.05048689,0.03379214,0.0034937917,0.005271226,0.0039600288,0.008347373,2.913631,0.0028649385,0.0
0.9679941,0.31139883,0.027952122,0.017469421,0.009130129,0.0332384,0.01218314,0.003724671,0.000999169,0.0047476664,0.010527629,2.9180014,0.003607822,0.0
0.9804673,1.4616404,0.04523761,0.030262193,0.01633922,0.0557231,0.019776702,0.0058727926,0.0019791855,0.008496393,0.0179732,2.9146183,0.006166571,0.0
0.9804673,1.4616404,0.043689612,0.06712178,0.0091467835,0.07026942,0.040541977,0.0027160097,0.0088083735,0.004756327,0.014863722,2.9106467,0.0051066736,0.0
0.9824589,2.901393,0.019668791,0.030804887,0.00062000164,0.0308393,0.01963438,0.0011769384,0.0040723234,0.00032240083,0.0056024604,2.9174333,0.0019203388,0.0
0.9824589,2.901393,0.023945836,0.016191645,0.0057541886,0.027007224,0.013130257,0.0030951935,0.001079104,0.0029921778,0.0069384836,2.9185958,0.0023773361,0.0
0.98696786,0.10408652,0.0918959,0.09157216,0.009198248,0.1009337,0.08253436,0.009582425,0.009498251,0.004783089,0.009199671,2.9024746,0.0031695957,0.0
0.98696786,0.10408652,0.023725396,0.030833496,0.011783184,0.03958695,0.014971941,0.0019130092,0.0037611148,0.006127255,0.012307504,2.9169736,0.0042192717,0.0
0.98939407,2.1534777,0.042371765,0.055547375,0.011045714,0.061820634,0.036098503,0.0033789654,0.0068046236,0.005743771,0.012861066,2.9120967,0.004416428,0.0
0.98939407,2.1534777,0.08322215,0.07858674,0.010042014,0.091210455,0.07059844,0.009016665,0.0078114583,0.0052218465,0.010306008,2.9049108,0.0035477881,0.0
0.98939407,2.1534777,0.07328713,0.04352455,0.0114954,0.07721002,0.03960166,0.009943342,0.0022050713,0.0059776073,0.018804178,2.9099717,0.0064619794,0.0
0.98939407,2.1534777,0.021526504,0.047541264,0.010089926,0.050995916,0.01807185,0.00020960506,0.0069734417,0.0052467613,0.016462032,2.9153419,0.00564669,0.0
0.98939407,2.1534777,0.0732365,0.07935914,0.008507206,0.08533907,0.06725657,0.0071390304,0.008730914,0.004423747,0.00904125,2.905947,0.0031112921,0.0
0.98939407,2.1534777,0.039495174,0.05322282,0.0054614493,0.05513051,0.03758748,0.0030367412,0.0066059288,0.0028399534,0.008771516,2.9126818,0.0030114914,0.0
0.9918,2.692445,0.026542943,0.047584612,0.0017685223,0.04773222,0.026395336,0.0011192155,0.0065900492,0.0009196315,0.010668442,2.9147727,0.0036601282,0.0
1.0077599,1.8139114,0.03830249,0.053725008,0.012205125,0.060450807,0.031576693,0.0027805017,0.0067903567,0.0063466644,0.014437057,2.9127593,0.004956488,0.0
1.0088375,2.4808142,0.038750608,0.033602502,0.010520101,0.047006987,0.025346123,0.0044316147,0.0030931078,0.005470452,0.010830432,2.9149723,0.0037154495,0.0
1.0117509,1.2485315,0.03129464,0.028367957,0.0049652588,0.0350077,0.024654893,0.0034829231,0.002721986,0.0025819342,0.0051764036,2.9163997,0.0017749293,0.0
1.0117509,1.2485315,0.05519496,0.06837921,0.009824478,0.07361825,0.04995592,0.0047119036,0.008139808,0.005108728,0.011831164,2.9092112,0.0040667946,0.0
1.0133024,1.0445409,0.041105784,0.02145732,0.008479336,0.044259023,0.018304083,0.0058075814,0.0006989807,0.0044092545,0.01297747,2.9160733,0.0044503235,0.0
1.0133024,1.0445409,0.06448687,0.0723563,0.01755617,0.08641328,0.05042989,0.0060928175,0.008138869,0.009129208,0.017991694,2.9077187,0.0061875633,0.0
1.0183132,0.82833683,0.035617813,0.028564371,0.0054900525,0.038616307,0.025565878,0.0042544208,0.0024205255,0.002854827,0.0065252148,2.9158914,0.0022378112,0.0
1.0183132,0.82833683,0.029066727,0.045774482,0.01191403,0.051971596,0.022869613,0.0017197342,0.0060637505,0.0061952947,0.014550991,2.9146924,0.0049922904,0.0
1.0216286,0.41548535,0.015509078,0.024135739,0.009500718,0.030256413,0.009388403,0.0009400644,0.003182996,0.004940373,0.010434005,2.918651,0.003574941,0.0
1.0216286,0.41548535,0.077941194,0.07494557,0.009205336,0.08576977,0.06711699,0.008339541,0.0075606797,0.004786774,0.009326391,2.9059143,0.0032094514,0.0
1.0218947,0.620122,0.01659535,0.009606152,0.010434919,0.024105284,0.0020962171,0.0022710736,0.00045388224,0.0054261573,0.011004534,2.9201632,0.0037684652,0.0
1.0218947,0.620122,0.022199236,0.011377403,0.010605646,0.028694525,0.004882112,0.003152823,0.00033914682,0.0055149356,0.011906207,2.9193337,0.0040783985,0.0
1.024391,3.0,0.085481964,0.08192047,0.008183617,0.09207634,0.07532609,0.00916792,0.008241931,0.0042554806,0.008375123,2.9042816,0.002883716,0.0
1.0335714,2.2665012,0.04232463,0.051688056,0.006999857,0.055427533,0.038585152,0.0036714135,0.0061059045,0.0036399253,0.00842119,2.9125361,0.0028913599,0.0
1.0335714,2.2665012,0.056582917,0.037927043,0.0075928345,0.05928251,0.035227448,0.0073397807,0.0024892539,0.0039482736,0.012027532,2.91248,0.004129653,0.0
1.0406024,0.20817304,0.000118362164,0.00011698666,0.016750365,0.01686804,-0.016632691,1.2416952e-05,1.2059322e-05,0.008710189,0.016750365,2.9230838,0.0057303747,0.0
1.0406024,0.20817304,0.043720677,0.03747347,0.01680614,0.05769103,0.02350312,0.005034232,0.0034099582,0.008739192,0.017093956,2.9139779,0.0058661927,0.0
1.0430831,1.591838,0.015402493,0.018848633,0.01209527,0.02934295,0.004908178,0.0013330601,0.0022290566,0.00628954,0.012217386,2.9192579,0.0041850996,0.0
1.0436736,2.8027859,0.04310524,0.039047457,0.007084174,0.04844533,0.033707365,0.004799451,0.0037444283,0.00368377,0.007368982,2.91387,0.0025289329,0.0
1.0436736,2.8027859,0.07059272,0.040204648,0.014703153,0.076542035,0.034255326,0.00971191,0.0018110139,0.0076456387,0.021143354,2.9106483,0.007264139,0.0
1.0475465,1.9377567,0.051167265,0.07426514,0.009827113,0.07788031,0.047552094,0.0035197607,0.009525207,0.005110098,0.015164107,2.909002,0.005212821,0.0
1.05,0.0,0.06298203,0.051347237,0.008825958,0.06773533,0.046593934,0.0074576447,0.0044325977,0.0045894976,0.0105706975,2.910251,0.0036322288,0.0
1.0530148,2.593838,0.07863219,0.07997508,0.012247096,0.091569126,0.06703815,0.008073001,0.008422153,0.006368489,0.0122654885,2.9052708,0.0042218054,0.0
1.0530148,2.593838,0.016018955,0.026847878,0.013304954,0.035797894,0.0070689395,0.00082131487,0.0036368351,0.0069185756,0.014364477,2.9182887,0.004922226,0.0
1.055577,1.3634121,0.013917681,0.015193313,0.013773713,0.02834397,0.00076702423,0.0013479394,0.0016796036,0.00716233,0.013788473,2.919836,0.0047223447,0.0
1.055577,1.3634121,0.034004316,0.052830003,0.0072073885,0.055272456,0.031561863,0.0020680449,0.006962723,0.0037478416,0.011855297,2.9133434,0.0040693097,0.0
1.0719947,1.1548624,0.06185658,0.06871521,0.014663433,0.08034499,0.050226793,0.00589811,0.0076813535,0.0076249843,0.015059099,2.9084241,0.005177752,0.0
1.0719947,1.1548624,0.06606138,0.065021075,0.00691547,0.07247622,0.05860622,0.0069515263,0.006681047,0.0035960441,0.0069350023,2.9083667,0.0023845006,0.0
1.0770054,0.9386583,0.07335934,0.078298666,0.0072908835,0.083526805,0.06813119,0.0072441036,0.008528327,0.0037912591,0.0076978058,2.9060524,0.0026488875,0.0
1.0777487,2.3795247,0.065167025,0.066672996,0.018716354,0.08465151,0.047188513,0.006659905,0.0070514553,0.009732503,0.018731497,2.9082816,0.0064407443,0.0
1.0777487,2.3795247,0.06341631,0.05563061,0.0032698319,0.06460737,0.054439556,0.0072025806,0.005178298,0.0017003124,0.0050839055,2.9097204,0.0017472145,0.0
1.0813015,0.72644883,0.025848147,0.048746716,0.007195175,0.05081988,0.023774981,0.00090211834,0.0068557463,0.0037414907,0.01352245,2.91472,0.004639365,0.0
1.0848831,0.5182341,0.03079487,0.055943616,0.006363499,0.05746211,0.029276371,0.0012410639,0.0077797375,0.0033090191,0.01409287,2.9133544,0.0048373346,0.0
1.0848831,0.5182341,0.050488736,0.037085894,0.008450752,0.054572687,0.033001944,0.0062962496,0.0028115106,0.0043943906,0.010785371,2.9132602,0.0037021653,0.0
1.0856059,2.901393,0.06745454,0.057058055,0.0014300881,0.067647666,0.05686493,0.007826197,0.005123111,0.0007436457,0.0053913686,2.9091055,0.0018532736,0.0
1.0873331,2.0616019,0.04801461,0.072523214,0.009372962,0.07569682,0.044841006,0.003081848,0.009454085,0.00487394,0.015427906,2.9095526,0.0053025014,0.0
1.0873331,2.0616019,0.06121145,0.049872033,0.00844383,0.065712474,0.045371003,0.007250463,0.004302217,0.004390791,0.010170735,2.9106162,0.0034943582,0.0
1.0897938,2.1830957,0.04630994,0.038834367,0.004800693,0.048656374,0.036487937,0.0053993277,0.0034556787,0.00249636,0.0060842186,2.9135337,0.0020882608,0.0
1.0897938,2.1830957,0.026401957,0.027903382,0.004270717,0.031488866,0.022816474,0.002628692,0.0030190626,0.0022207727,0.004336196,2.9170022,0.0014865247,0.0
1.094237,0.31225955,0.026358502,0.022401953,0.005534931,0.03025807,0.018502384,0.0030498947,0.0020211919,0.002878164,0.005877843,2.917626,0.0020145979,0.0
1.094237,0.31225955,0.05061624,0.052357245,0.0028020039,0.05442085,0.048552632,0.0051282896,0.005580951,0.0014570418,0.0029341094,2.9115283,0.0010077558,0.0
1.1036345,0.10408652,0.03567505,0.05398571,0.0119207315,0.059861146,0.029799616,0.002281973,0.0070427447,0.0061987797,0.015030765,2.9130256,0.0051598465,0.0
1.1048884,2.704179,0.01882969,0.008898217,0.01487413,0.029545099,-0.0018171901,0.0027329423,0.0001507596,0.0077345464,0.015681144,2.9199915,0.0053702705,0.0
1.1048884,2.704179,0.008153543,0.018836634,0.0040058643,0.020171843,0.0068183336,1.4687158e-05,0.0027922909,0.0020830492,0.006676755,2.9200745,0.0022865017,0.0
1.105699,1.7220356,0.010669464,0.020017872,0.014264655,0.030354615,0.00033271965,0.00038044833,0.0028110342,0.00741762,0.015010947,2.9196587,0.0051413365,0.0
1.105699,1.7220356,0.044625737,0.03187752,0.0061259717,0.047092263,0.029411,0.0056354366,0.002320901,0.003185505,0.008840632,2.9145055,0.0030333214,0.0
1.1181929,1.4936097,0.0042078136,0.007655354,0.007557224,0.013682907,-0.0018197396,0.00016870436,0.0010650649,0.003929756,0.0077513233,2.9217758,0.0026529494,0.0
1.121926,2.4925485,0.04824342,0.062287092,0.0053710686,0.064105764,0.046424747,0.003921908,0.0075732633,0.0027929554,0.008840509,2.9106784,0.0030372674,0.0
1.121926,2.4925485,0.061724156,0.06516656,0.012042283,0.07561003,0.051280692,0.006150804,0.007045829,0.0062619867,0.012164667,2.908838,0.004181968,0.0
1.1275381,3.0,0.022869527,0.016467111,0.012880514,0.03294067,0.006395964,0.002877819,0.001213191,0.0066978666,0.013272353,2.918686,0.004547373,0.0
1.1306869,1.2651838,0.01250598,0.007188351,0.009773808,0.019976165,-0.00028183218,0.0017153968,0.00033281336,0.0050823796,0.010128999,2.920895,0.0034677724,0.0
1.1306869,1.2651838,0.05571442,0.07571819,0.012085638,0.08140389,0.05002872,0.004234005,0.009434984,0.006284531,0.015687585,2.9083273,0.005394023,0.0
1.1306869,1.2651838,0.053307794,0.035615426,0.004608781,0.054436367,0.03448685,0.006924015,0.0023239988,0.0023965659,0.009974759,2.9131086,0.0034240945,0.0
1.1306869,1.2651838,0.05110814,0.07293296,0.009805845,0.07669145,0.047349647,0.0036129102,0.009287362,0.005099039,0.014670901,2.9091587,0.0050430046,0.0
1.1306869,1.2651838,0.020528711,0.044201385,0.009350793,0.04744935,0.017280743,0.00028851724,0.0064434116,0.0048624123,0.015084304,2.9158297,0.005173246,0.0
1.1306869,1.2651838,0.06642302,0.078057386,0.010994647,0.084678926,0.059801478,0.0060005123,0.009025448,0.0057172156,0.012438724,2.9068596,0.0042790934,0.0
1.133971,2.2961192,0.07352378,0.08426111,0.009316602,0.0896452,0.068139695,0.006808961,0.009600666,0.0048446325,0.010752752,2.9053633,0.003701001,0.0
1.1356976,1.0489798,0.07379885,0.08178078,0.003095807,0.08284073,0.07273889,0.0070524886,0.00912779,0.0016098195,0.00505092,2.9056113,0.001738333,0.0
1.1407082,0.8327757,0.073955774,0.06531407,0.010621002,0.081101194,0.05816865,0.008365452,0.006118609,0.0055229203,0.011466272,2.907446,0.0039437613,0.0
1.1407082,0.8327757,0.058141287,0.07772777,0.0130004855,0.0842109,0.051658157,0.004518947,0.009611433,0.0067602517,0.016276373,2.9078283,0.0055974326,0.0
1.1442899,0.6245609,0.017048413,0.032862287,0.011790366,0.03915156,0.01075914,0.00053955265,0.0046511595,0.0061309896,0.01419621,2.9174964,0.0048658876,0.0
1.1454855,1.8458807,0.018305575,0.025976654,0.015626961,0.038231894,0.0060503315,0.0013054353,0.003299916,0.0081260195,0.01609078,2.9181297,0.005514073,0.0
1.1468207,2.8027859,0.0677707,0.041621864,0.0008419946,0.06779778,0.04159478,0.00908776,0.0022890645,0.00043783715,0.0131014995,2.9108062,0.0045009865,0.0
1.1478715,0.41634607,0.036476206,0.06899177,0.0018472275,0.06909638,0.036371596,0.0012573111,0.009711357,0.0009605582,0.016362391,2.9112477,0.005620405,0.0
1.1478715,0.41634607,0.032528892,0.0214561,0.012051553,0.04025491,0.013730083,0.004246682,0.0013677564,0.006266807,0.013262413,2.9170382,0.004546534,0.0
1.1478715,0.41634607,0.07519074,0.08631962,0.0067482274,0.089501694,0.072008654,0.0069517833,0.009845291,0.003509078,0.00874652,2.9049442,0.003010908,0.0
1.1478715,0.41634607,0.048071925,0.041825823,0.008477406,0.05398325,0.035914503,0.0054866755,0.0038626888,0.0044082506,0.009034373,2.912999,0.0031013994,0.0
1.1478715,0.41634607,0.037263423,0.026947038,0.009204923,0.04265689,0.021553569,0.0046800734,0.0019978136,0.0047865594,0.010551661,2.915888,0.0036186783,0.0
1.1478715,0.41634607,0.022542516,0.02785632,0.008533677,0.034137134,0.0162617,0.0019299446,0.0033115335,0.004437512,0.0089377165,2.9174416,0.003063546,0.0
1.157269,0.20817304,0.06137112,0.041594613,0.008045573,0.06423076,0.038734972,0.007925163,0.0027832717,0.0041836975,0.012747895,2.911529,0.0043784194,0.0
1.1661032,2.605572,0.01616117,0.033119895,0.0049187434,0.034443267,0.014837797,0.0003579807,0.0047672493,0.0025577464,0.0098027345,2.9175673,0.0033599,0.0
1.1661032,2.605572,0.049624987,0.066924766,0.0079106735,0.069996625,0.046553127,0.0038116153,0.008309557,0.00411355,0.011721749,2.9100013,0.0040280907,0.0
1.1661032,2.605572,0.054971635,0.070186764,0.0057662283,0.07212511,0.05303329,0.0045302687,0.008486203,0.0029984384,0.009545909,2.909033,0.0032814716,0.0
1.1661032,2.605572,0.09457197,0.09318932,0.015463742,0.10935983,0.07840146,0.009943331,0.009583841,0.008041145,0.015479185,2.9019916,0.0053339866,0.0
1.1661032,2.605572,0.068842836,0.07275315,0.010003329,0.0809906,0.060605388,0.006854649,0.007871331,0.005201731,0.010192605,2.9071841,0.003506006,0.0
1.1661032,2.605572,0.044810634,0.022639427,0.00943489,0.048282083,0.019167978,0.0063896594,0.0006251458,0.004906142,0.014557052,2.9155238,0.004992946,0.0
1.1666666,0.0,0.046075497,0.046667986,0.015003381,0.061378047,0.03136544,0.0047456366,0.004899684,0.0078017577,0.015006304,2.912679,0.0051520625,0.0
1.1781483,2.4091427,0.0676395,0.07965525,0.0066353013,0.082598455,0.064696305,0.0060972786,0.009221373,0.0034503564,0.008951075,2.9065433,0.0030796293,0.0
1.1808087,1.6238073,0.08208417,0.08372699,0.010400201,0.09333816,0.07247299,0.008408613,0.008835745,0.005408104,0.010432586,2.9044607,0.0035919186,0.0
1.1852721,1.969726,0.06918282,0.039307564,0.014061683,0.074760154,0.03373023,0.009525282,0.0017577161,0.0073120743,0.020514961,2.9109077,0.0070476164,0.0
1.1852721,1.969726,0.024829712,0.025598193,0.0007866833,0.02608946,0.024338447,0.0025223482,0.0027221532,0.00040907526,0.00087550655,2.9174383,0.00030009428,0.0
1.1877327,2.0912197,0.081279054,0.08058986,0.010550909,0.09149099,0.07037792,0.008506778,0.008327587,0.005486472,0.010556534,2.904904,0.003634039,0.0
1.1887529,2.901393,0.05283532,0.033434484,0.017570637,0.06320541,0.023064392,0.0070081376,0.001963921,0.009136731,0.020070512,2.913407,0.0068890173,0.0
1.1901934,2.2127135,0.08196067,0.086350985,0.008557849,0.092990726,0.07532093,0.008181465,0.009322945,0.004450081,0.0088348985,2.9041793,0.0030421326,0.0
1.1901934,2.2127135,0.03970211,0.029165262,0.0075880876,0.0436714,0.025195971,0.0049508926,0.0022113128,0.003945805,0.009237714,2.9153643,0.003168631,0.0
1.1933026,1.3953815,0.06416055,0.036294173,0.0060680443,0.06542456,0.03503016,0.008846273,0.0016010165,0.0031553828,0.015197201,2.9118116,0.0052191564,0.0
1.1933026,1.3953815,0.061861925,0.046470106,0.006706315,0.06437394,0.04395809,0.0076342016,0.0036323285,0.0034872836,0.010207925,2.9109256,0.0035067624,0.0
1.1943897,1.1593013,0.078068554,0.084199734,0.011102229,0.09265184,0.069616444,0.007640896,0.009235003,0.0057731587,0.011517696,2.904859,0.003964976,0.0
1.1943897,1.1593013,0.07191078,0.055384994,0.009903855,0.07654602,0.050749756,0.0087677315,0.0044710273,0.005150004,0.012898132,2.9087925,0.004434188,0.0
1.1994004,0.9430972,0.0836674,0.06757976,0.009838762,0.08833201,0.06291515,0.009956244,0.0057734577,0.005116156,0.012708433,2.9060986,0.004373022,0.0
1.2036966,0.7308877,0.08277237,0.07368469,0.0097526405,0.08898774,0.06746933,0.009317163,0.0069543687,0.0050713727,0.010759205,2.9055126,0.0037030315,0.0
1.2072783,0.5226729,0.0653591,0.071567,0.015435362,0.08420741,0.05271869,0.0063131293,0.007927183,0.008026388,0.015744358,2.9077094,0.0054146945,0.0
1.2072783,0.5226729,0.054220963,0.066628836,0.0071879574,0.06991993,0.050929874,0.0046711657,0.007897212,0.0037377374,0.009495027,2.9095175,0.0032634372,0.0
1.2080355,2.704179,0.060225397,0.061515782,0.009835485,0.070727214,0.05101396,0.00616279,0.00649829,0.005114452,0.009856626,2.9094174,0.003387835,0.0
1.2080355,2.704179,0.07597889,0.057695962,0.008960481,0.07963808,0.05403678,0.009327872,0.004574311,0.0046594497,0.012800649,2.908075,0.00440176,0.0
1.2109036,0.31225955,0.033231042,0.05806775,0.0072612274,0.060034834,0.031263955,0.0015187644,0.007976308,0.0037758378,0.014385439,2.9128413,0.004938628,0.0
1.2109036,0.31225955,0.050089102,0.060898792,0.012023794,0.068676665,0.042311233,0.00436611,0.0071766293,0.0062523726,0.013182716,2.910627,0.0045291674,0.0
1.2203012,0.10408652,0.028874012,0.053662308,0.016664486,0.062036403,0.020499913,0.0010694097,0.0075143664,0.008665532,0.020768244,2.913827,0.00712748,0.0
1.2223256,2.5221663,0.0690849,0.03841931,0.010062379,0.07209184,0.035412364,0.009576744,0.0016036917,0.0052324366,0.018339738,2.9110186,0.0063001104,0.0
1.2223256,2.5221663,0.056976117,0.04211551,0.007355496,0.060001086,0.03909054,0.007084643,0.003220885,0.0038248575,0.010455273,2.911965,0.003590453,0.0
1.2306851,3.0,0.007710473,0.007628752,0.015396114,0.023065781,-0.0077265557,0.00080826343,0.0007870158,0.008005979,0.015396168,2.921385,0.0052701607,0.0
1.2343707,2.325737,0.0582877,0.07929875,0.012293311,0.084963925,0.05262252,0.004423058,0.00988593,0.006392521,0.016170703,2.9076352,0.005561462,0.0
1.2434245,1.754005,0.025278771,0.0117340125,0.009708455,0.030343588,0.0066691963,0.003685483,0.00016384604,0.005048396,0.011837196,2.9189472,0.004055296,0.0
1.2434245,1.754005,0.058537193,0.053057466,0.006322541,0.06268801,0.048906658,0.006515286,0.005090557,0.003287721,0.006890675,2.9105585,0.0023674753,0.0
1.2499677,2.8027859,0.040261246,0.06556001,0.010077901,0.06908379,0.03673747,0.0022138653,0.008791544,0.005240508,0.016173158,2.911208,0.0055554803,0.0
1.2499677,2.8027859,0.045007035,0.025488738,0.009402239,0.04879938,0.021696389,0.006203158,0.0011284013,0.0048891637,0.013551496,2.9151812,0.0046485947,0.0
1.2559185,1.5255791,0.06695706,0.030831993,0.01752813,0.07406376,0.02372529,0.009781288,0.00038877185,0.009114627,0.025169237,2.9121113,0.008642952,0.0
1.2559185,1.5255791,0.08120203,0.07746865,0.006937937,0.08652001,0.07215067,0.008736214,0.0077655343,0.003607727,0.0071846694,2.9052637,0.0024729837,0.0
1.257106,1.269654,0.009514442,0.012894362,0.011128643,0.022460628,-5.1824376e-05,0.00072586804,0.0016046473,0.0057868934,0.011256226,2.92059,0.0038540934,0.0
1.257106,1.269654,0.02101248,0.04196354,0.009103155,0.045366198,0.01760982,0.0005511152,0.00599839,0.0047336402,0.013878189,2.916027,0.00475928,0.0
1.2580926,1.0534186,0.03568668,0.018313313,0.008767447,0.03934206,0.014657929,0.0050665364,0.0005494619,0.004559072,0.012342066,2.9170365,0.0042310287,0.0
1.2580926,1.0534186,0.06741333,0.047186345,0.012139019,0.07309979,0.041499883,0.00858869,0.003329674,0.0063122893,0.015799955,2.9102206,0.005429126,0.0
1.2631034,0.8372145,0.07270031,0.06053521,0.011030554,0.07921421,0.05402131,0.008509708,0.005346784,0.005735887,0.012596449,2.9081244,0.004331468,0.0
1.2631034,0.8372145,0.019759055,0.015202598,0.007078249,0.02491668,0.0100449715,0.002410345,0.0012256663,0.003680689,0.0074358545,2.919178,0.0025472427,0.0
1.266685,0.6289997,0.045779392,0.06811427,0.0059407353,0.069596104,0.04429756,0.003018936,0.008826003,0.003089182,0.012649272,2.9103,0.0043463805,0.0
1.266685,0.6289997,0.08154563,0.07918832,0.011133349,0.09156253,0.06917141,0.008664614,0.008051714,0.0057893405,0.011195563,2.9050317,0.0038538522,0.0
1.2682894,0.4171534,0.065879956,0.046154104,0.017716805,0.07629417,0.035739888,0.0083901305,0.0032614102,0.009212738,0.02027714,2.910509,0.0069668707,0.0
1.2682894,0.4171534,0.031545307,0.015701659,0.017285556,0.04263784,0.0046091266,0.0045165163,0.00039716752,0.008988488,0.019014357,2.9177961,0.0065166843,0.0
1.2739357,0.20817304,0.05620702,0.036539823,0.006689735,0.05826679,0.03448005,0.0073795705,0.0022661,0.0034786619,0.011893369,2.9126785,0.0040833103,0.0
1.2739357,0.20817304,0.06721384,0.07456253,0.008583976,0.0802255,0.06155087,0.0064170416,0.008327698,0.004463667,0.0093373135,2.9071639,0.003211829,0.0
1.278548,2.4387608,0.094724864,0.094351776,0.016050586,0.11058999,0.078486644,0.009880486,0.009783482,0.008346304,0.016051672,2.9018438,0.0055315425,0.0
1.278548,2.4387608,0.05225662,0.038394094,0.004633076,0.053662494,0.03698822,0.006515965,0.002911708,0.0024091993,0.008337136,2.9129143,0.002862129,0.0
1.2832111,1.87785,0.08438234,0.08275115,0.014358658,0.097948544,0.06918494,0.008902995,0.008478885,0.0074665016,0.014381804,2.904312,0.00495188,0.0
1.2832111,1.87785,0.076268725,0.068064034,0.0148118185,0.087535806,0.05679696,0.008571912,0.0064386926,0.007702145,0.015369423,2.9068763,0.005287264,0.0
1.2833333,0.0,0.030336311,0.038053297,0.009727724,0.044659823,0.023729788,0.002553051,0.004559467,0.005058416,0.0104650175,2.9154181,0.0035895426,0.0
1.2856717,1.9993439,0.021439187,0.033474,0.014132122,0.042816475,0.01209671,0.0012909601,0.0044200104,0.0073487028,0.015359882,2.9169338,0.005265763,0.0
1.2864312,2.6165135,0.0068422556,0.009542575,0.008471885,0.016771212,-0.00038638245,0.0005009696,0.0012030526,0.0044053798,0.008578798,2.9212673,0.0029366699,0.0
1.2864312,2.6165135,0.022225838,0.030344386,0.00940506,0.036528785,0.016041439,0.0016782403,0.0037890621,0.0048906305,0.010243673,2.9171975,0.0035114773,0.0
1.2881324,2.1208377,0.04342514,0.071419604,0.014471653,0.07755571,0.03728903,0.0023326457,0.009611206,0.0075252587,0.020133339,2.910193,0.0069182143,0.0
1.290593,2.2423315,0.052445337,0.06421716,0.017465271,0.07676165,0.039900847,0.0045361123,0.0075967857,0.00908194,0.0184304,2.9099886,0.006333496,0.0
1.290593,2.2423315,0.050443213,0.031143988,0.01595843,0.05944264,0.022144565,0.006751433,0.0017336346,0.008298383,0.018649038,2.9139338,0.006399953,0.0
1.2918999,2.901393,0.04983993,0.024290519,0.010607517,0.053669818,0.02046063,0.0071762055,0.00053335977,0.0055159084,0.016604595,2.9147723,0.005696704,0.0
1.2918999,2.901393,0.026140073,0.042121764,0.010862539,0.047616035,0.020645805,0.0014719954,0.0056272345,0.0056485194,0.013485115,2.9154325,0.004625425,0.0
1.3185343,1.6557766,0.08152307,0.076649144,0.01329672,0.0926043,0.06556792,0.008858564,0.0075913435,0.0069142934,0.013518192,2.9053197,0.0046529104,0.0
1.3185343,1.6557766,0.025634091,0.0386201,0.0074630757,0.042019345,0.022234848,0.0016530367,0.005029398,0.003880799,0.009892249,2.9158833,0.0033925392,0.0
1.3197218,1.3998517,0.06338825,0.06981412,0.0057762214,0.07321085,0.05999152,0.0060911593,0.0077618854,0.0030036347,0.006609665,2.9081283,0.0022728245,0.0
1.3208089,1.1637714,0.06959125,0.03517565,0.016197672,0.07601548,0.028751418,0.009921905,0.0009738511,0.008422788,0.023632031,2.9113266,0.0081172725,0.0
1.3217956,0.947536,0.07303286,0.060836896,0.00496509,0.07479857,0.059071198,0.008546702,0.0053757513,0.0025818467,0.0078636855,2.9080532,0.0027041065,0.0
1.3217956,0.947536,0.045687705,0.04593762,0.012844546,0.058657818,0.032967508,0.004732027,0.004797005,0.0066791633,0.012845155,2.9128046,0.0044098925,0.0
1.3260916,0.7353265,0.024701232,0.04418742,0.0032706799,0.044721738,0.024166912,0.0010490052,0.0061154133,0.0017007533,0.010277413,2.915362,0.0035252615,0.0
1.3260916,0.7353265,0.049718466,0.040126234,0.0042384407,0.051322907,0.038521796,0.0059189135,0.0034249339,0.0022039888,0.0064005554,2.9130049,0.0021972347,0.0
1.3276962,0.5234802,0.082953654,0.08013397,0.009026203,0.09067945,0.07240817,0.008847115,0.008113995,0.0046936255,0.009135641,2.9047668,0.0031450514,0.0
1.3283634,2.7151206,0.074001245,0.05117245,0.008202991,0.07664307,0.048530616,0.009476773,0.0035412887,0.004265555,0.014056228,2.9090312,0.004831928,0.0
1.3313216,0.31306687,0.056202527,0.0672609,0.009459486,0.07268862,0.050774805,0.0049825087,0.007857686,0.0049189324,0.010956906,2.9092236,0.0037662645,0.0
1.3338321,3.0,0.092383705,0.09267133,0.010605451,0.10313394,0.08192109,0.00958547,0.0096602505,0.0055148336,0.010606423,2.902296,0.0036544937,0.0
1.3338321,3.0,0.08343619,0.08776661,0.012677119,0.0984621,0.07274071,0.00833959,0.009465499,0.0065921014,0.012860693,2.9038541,0.0044288356,0.0
1.3338321,3.0,0.022440143,0.025027208,0.015258654,0.039047062,0.00842029,0.0021319834,0.0028046204,0.0079344995,0.015313386,2.9177713,0.005248316,0.0
1.3347703,2.355355,0.046411607,0.022453226,0.007706456,0.04867638,0.020188456,0.00669556,0.00046638152,0.0040073567,0.014243961,2.9153647,0.004885825,0.0
1.3347703,2.355355,0.03144452,0.023208044,0.012280746,0.040279143,0.014373421,0.0039126747,0.0017711911,0.0063859876,0.01295286,2.916963,0.0044405293,0.0
1.3369678,0.10408652,0.062380582,0.0622845,0.0027398206,0.06507278,0.0595923,0.0064950744,0.0064700926,0.0014247065,0.0027402416,2.9090884,0.00094195886,0.0
1.3369678,0.10408652,0.060310025,0.049737107,0.0095962025,0.065979555,0.044067577,0.0070969295,0.0043479707,0.004990025,0.010955989,2.9107327,0.003763997,0.0
1.3426535,2.5331078,0.005605185,0.0032469118,0.012441182,0.016922982,-0.008070886,0.0007668844,0.00015373349,0.0064694136,0.012496934,2.9221146,0.0042766747,0.0
1.3702956,2.8137274,0.06576304,0.06647534,0.017303048,0.08342591,0.04881248,0.0067837965,0.006968993,0.008997584,0.017306715,2.9082367,0.0059509305,0.0
1.3811501,1.7859743,0.058925536,0.06646084,0.012894451,0.07612681,0.04925957,0.005540501,0.007499681,0.0067051137,0.0134336185,2.9090073,0.0046179392,0.0
1.3811501,1.7859743,0.0690086,0.039887425,0.009722725,0.07195636,0.036939673,0.009448347,0.0018768393,0.0050558164,0.017508343,2.9108622,0.0060148304,0.0
1.3811501,1.7859743,0.051093847,0.05421018,0.0057359417,0.058595825,0.0467082,0.0050706854,0.0058809314,0.0029826893,0.0059438124,2.911266,0.0020416589,0.0
1.3811501,1.7859743,0.02219148,0.014716116,0.007248445,0.026609177,0.010298418,0.0028909922,0.00094739726,0.003769191,0.008155379,2.9189591,0.0027939342,0.0
1.3811501,1.7859743,0.036975697,0.04890359,0.0056844405,0.051178664,0.034700617,0.0029150962,0.006016348,0.002955909,0.008239023,2.913451,0.0028279258,0.0
1.3811501,1.7859743,0.050928947,0.056460373,0.012286485,0.06628858,0.041100737,0.0048651583,0.0063033295,0.0063889716,0.012593923,2.9110315,0.004326275,0.0
1.3811501,1.7859743,0.08244507,0.070756316,0.011638865,0.08962452,0.06357687,0.009486009,0.0064469324,0.006052209,0.0130238235,2.9058788,0.004481888,0.0
1.3823376,1.5300492,0.06861251,0.06962197,0.0077895345,0.07692311,0.06131137,0.0070569627,0.0073194215,0.0040505575,0.007805869,2.9075623,0.0026846782,0.0
1.383525,1.2741241,0.018003095,0.009506532,0.016400235,0.030696347,-0.0031867214,0.0025350535,0.0003259472,0.008528121,0.016941534,2.920016,0.0058018635,0.0
1.383525,1.2741241,0.0069556898,0.0073084473,0.0117148105,0.018848207,-0.0045840703,0.0006958765,0.00078759354,0.006091701,0.011716139,2.921506,0.004010308,0.0
1.3836107,1.9074681,0.043121975,0.052141152,0.0031112665,0.053110283,0.04215284,0.003781189,0.0061261747,0.0016178584,0.005478721,2.9123955,0.0018811735,0.0
1.3836107,1.9074681,0.03125378,0.041747257,0.016208822,0.05353737,0.019463673,0.0024319014,0.005160205,0.008428587,0.017036848,2.9148993,0.0058447467,0.0
1.3845117,1.0578887,0.039927676,0.06808738,0.015204428,0.074729905,0.033285152,0.0019560212,0.009277543,0.007906302,0.020722376,2.9109612,0.00711874,0.0
1.3854984,0.84165335,0.070839606,0.060748372,0.006573306,0.07408052,0.05750746,0.008154434,0.0055307136,0.0034181187,0.00828653,2.90831,0.0028492596,0.0
1.3854984,0.84165335,0.08816395,0.07786806,0.0039264597,0.08949045,0.076541565,0.009972128,0.0072951983,0.002041759,0.006474443,2.9044356,0.002229157,0.0
1.3854984,0.84165335,0.028758794,0.022732457,0.008712302,0.03496427,0.016526982,0.0034609684,0.0018941208,0.004530397,0.009218644,2.9173188,0.0031599714,0.0
1.3854984,0.84165335,0.037865445,0.07009503,0.014050453,0.07536018,0.0326003,0.0014240983,0.00980379,0.007306235,0.02137994,2.9109674,0.007344617,0.0
1.3854984,0.84165335,0.07928386,0.06513891,0.010040951,0.0844931,0.05992967,0.0093488265,0.00567114,0.005221294,0.012281716,2.9068663,0.0042250706,0.0
1.3854984,0.84165335,0.019909997,0.023122102,0.013159765,0.034773454,0.008258644,0.0018200951,0.0026552426,0.006843077,0.013257405,2.91827,0.0045428984,0.0
1.3860714,2.028962,0.07457327,0.07547043,0.008321271,0.0833552,0.06668849,0.0076856404,0.007918903,0.0043270607,0.008333355,2.906234,0.0028674067,0.0
1.3860714,2.028962,0.01895446,0.04034843,0.008760871,0.04347817,0.015824718,0.00030253406,0.0058649653,0.004555653,0.013826725,2.91644,0.00474096,0.0
1.387103,0.62980705,0.07729119,0.06603294,0.004808437,0.07906532,0.064258814,0.0089164255,0.005989281,0.0025003871,0.0074032545,2.9069898,0.002546708,0.0
1.388532,2.1504557,0.06073543,0.04890377,0.0067261625,0.06377718,0.045862015,0.0072393534,0.004163122,0.0034976043,0.008957582,2.9107785,0.0030773834,0.0
1.388532,2.1504557,0.07603523,0.084145084,0.0047738072,0.086353675,0.07382664,0.0072750947,0.009383655,0.0024823796,0.006263517,2.905094,0.0021560462,0.0
1.3887074,0.41796067,0.022974765,0.038043708,0.008077224,0.041555043,0.019463431,0.0012139976,0.0051319227,0.004200156,0.011045806,2.9162471,0.0037876784,0.0
1.3887074,0.41796067,0.054758757,0.04279329,0.006087846,0.057311535,0.04024051,0.0066282162,0.003517195,0.0031656798,0.008535512,2.912138,0.002931012,0.0
1.3909928,2.2719495,0.041445956,0.06708981,0.016250113,0.074967355,0.033568412,0.0023101585,0.008977559,0.008450058,0.020699471,2.9109027,0.0071110143,0.0
1.3909928,2.2719495,0.044220276,0.04153462,0.007484453,0.050481413,0.03527349,0.0048083887,0.0041101193,0.003891915,0.007603962,2.913465,0.0026099377,0.0
1.3909928,2.2719495,0.056582388,0.062854305,0.007440659,0.067792855,0.05164384,0.0053953575,0.0070260563,0.0038691424,0.008074507,2.9096766,0.0027750533,0.0
1.3909928,2.2719495,0.04925891,0.045500815,0.015105994,0.062602274,0.032157447,0.005416057,0.004438953,0.007855116,0.015222413,2.912452,0.005226666,0.0
1.3909928,2.2719495,0.0526535,0.07240654,0.009181584,0.076015085,0.049044948,0.0039352262,0.009071016,0.0047744233,0.013485068,2.909044,0.004635567,0.0
1.3943537,0.20898034,0.07669446,0.054669775,0.008030943,0.07931177,0.05205245,0.009694148,0.0039677303,0.00417609,0.013629662,2.908335,0.0046864143,0.0
1.398876,2.4497023,0.01701776,0.028599223,0.017190393,0.04094801,0.0046689715,0.0008664927,0.0038776728,0.008939004,0.018139519,2.9179795,0.0062164655,0.0
1.4,0.0,0.049578056,0.029036686,0.009253176,0.05313156,0.02548318,0.0067583434,0.0014175884,0.004811651,0.013824191,2.914268,0.0047436235,0.0
1.4,0.0,0.050209936,0.06804732,0.0075500323,0.070813924,0.047443334,0.003830517,0.008468236,0.0039260164,0.011685295,2.909809,0.004015829,0.0
1.4,0.0,0.047323763,0.04802189,0.0053013,0.052985605,0.04236005,0.004867217,0.0050487295,0.0027566757,0.005312778,2.9123862,0.0018242011,0.0
1.4067591,2.627455,0.0836399,0.088372014,0.0047666696,0.09132755,0.080684364,0.008329443,0.009559793,0.002478668,0.005321592,2.903763,0.0018326537,0.0
1.4067591,2.627455,0.04455603,0.07135014,0.0149613675,0.078036,0.03787017,0.0025438853,0.009510355,0.00777991,0.020082917,2.9100738,0.006901171,0.0
1.4122279,2.9123344,0.030211717,0.05221877,0.01335167,0.058516823,0.023913661,0.001425468,0.0071473015,0.0069428673,0.017301582,2.9138389,0.0059377276,0.0
1.4122279,2.9123344,0.03019619,0.039671704,0.012319664,0.048133206,0.021734688,0.002401313,0.004864947,0.0064062243,0.013199259,2.9152517,0.0045276564,0.0
1.42972,3.0,0.031602602,0.063540034,0.0034682846,0.06391233,0.031230299,0.00079555047,0.009099282,0.0018035078,0.016341016,2.912409,0.0056108246,0.0
1.4449533,1.6602468,0.08178396,0.085801765,0.014488633,0.098420106,0.069165625,0.008192142,0.009236771,0.0075340886,0.014627241,2.9042609,0.005036476,0.0
1.4449533,1.6602468,0.023099221,0.04489692,0.007142105,0.047028597,0.020967547,0.0007020983,0.0063694995,0.0037138944,0.013030525,2.9154623,0.0044694543,0.0
1.4461409,1.4043218,0.024900567,0.035389252,0.017865144,0.048763894,0.011525927,0.0017715412,0.004498599,0.009289874,0.018618982,2.9163291,0.00638439,0.0
1.4465097,0.7361339,0.061621543,0.06709232,0.004098814,0.06928467,0.05942919,0.005981919,0.007404321,0.0021313832,0.0049277395,2.908633,0.0016941772,0.0
1.4465097,0.7361339,0.030860562,0.051971953,0.0038202973,0.052642003,0.03019051,0.0015628098,0.0070517706,0.0019865544,0.011225746,2.9137936,0.0038526224,0.0
1.447228,1.1682416,0.07823559,0.07412723,0.0117531605,0.088112734,0.06425009,0.008456952,0.007388779,0.006111643,0.0119313225,2.9059732,0.0041057924,0.0
1.4481142,0.5242875,0.039881483,0.06391211,0.012361479,0.06913553,0.034658063,0.0022732846,0.008521248,0.0064279684,0.017238734,2.911436,0.0059210416,0.0
1.4482147,0.95200616,0.023010394,0.02702552,0.014334438,0.039492294,0.010543621,0.0020799006,0.0031238338,0.0074539073,0.014474336,2.9174824,0.004961242,0.0
1.4482147,0.95200616,0.07563878,0.0663708,0.008073316,0.08031351,0.06169607,0.008589335,0.0061796596,0.0041981237,0.00930872,2.9071376,0.0032020225,0.0
1.4486914,2.726062,0.06427555,0.054679967,0.008340267,0.069099545,0.049855966,0.007433111,0.0049382607,0.0043369387,0.00962179,2.9097307,0.003306763,0.0
1.4517395,0.31387416,0.067084596,0.07536845,0.0159535,0.08770893,0.054744117,0.006330657,0.008484459,0.008295819,0.016482405,2.9070878,0.0056697307,0.0
1.4550983,2.3662965,0.06630872,0.07923122,0.007927244,0.082996845,0.062543094,0.0058881515,0.009248,0.0041221664,0.010226876,2.9067407,0.0035183309,0.0
1.4550983,2.3662965,0.040952217,0.07246251,0.0048497175,0.07319203,0.04022269,0.0018012271,0.009993902,0.002521853,0.01648467,2.910354,0.0056641465,0.0
1.4573859,0.104893826,0.070568904,0.053380348,0.0056515336,0.07226061,0.05168864,0.008679872,0.0042108484,0.0029387972,0.010285985,2.909169,0.0035357124,0.0
1.4573859,0.104893826,0.058071833,0.04113997,0.0094698025,0.06230823,0.036903575,0.0073601548,0.0029578714,0.004924297,0.012702327,2.9119513,0.0043621357,0.0
1.4629815,2.5440493,0.036939275,0.016427333,0.0073823603,0.039319925,0.014046684,0.0054416154,0.00010851098,0.003838827,0.012636621,2.9171078,0.0043319003,0.0
1.4785907,1.880801,0.06836425,0.05978529,0.003238253,0.06944933,0.058700208,0.0077790385,0.005548511,0.0016838914,0.00537456,2.9086967,0.0018477555,0.0
1.4785907,1.880801,0.024918772,0.026467016,0.012803282,0.038519558,0.012866232,0.002470789,0.0028733322,0.0066577056,0.0128266625,2.9173305,0.004396712,0.0
1.4810514,2.0022948,0.031781256,0.04063057,0.008385121,0.045686834,0.026724994,0.0026150038,0.004915825,0.0043602623,0.00948092,2.9149656,0.0032524979,0.0
1.483512,2.1237886,0.07666156,0.08390759,0.01145519,0.09229905,0.068270095,0.00740761,0.009291579,0.005956698,0.012014478,2.90505,0.004135722,0.0
1.4859728,2.2452824,0.08388402,0.075861014,0.0110332575,0.091612406,0.06813263,0.009349732,0.00726375,0.0057372935,0.011739887,2.9051428,0.0040410706,0.0
1.4859728,2.2452824,0.012920079,0.020669654,0.0056428644,0.023640003,0.009949729,0.00073922117,0.0027541106,0.0029342892,0.006845137,2.9193323,0.0023447613,0.0
1.4906236,2.8246691,0.012945144,0.020116836,0.0060719997,0.02358276,0.00947922,0.00078690297,0.0026515424,0.0031574396,0.00705177,2.9193916,0.0024154931,0.0
1.4906236,2.8246691,0.0675553,0.051181216,0.0043022083,0.06861687,0.050119657,0.008302929,0.004045667,0.0022371481,0.009248605,2.9097552,0.0031784822,0.0
1.5072731,0.8417233,0.0729951,0.051623538,0.009548769,0.076639876,0.04797876,0.0092584705,0.003701866,0.00496536,0.0143305585,2.9090936,0.004926125,0.0
1.5072731,0.8417233,0.019909885,0.03614881,0.0049315565,0.037529133,0.018529562,0.0008039919,0.0050261114,0.002564409,0.0094997855,2.916805,0.003256915,0.0
1.5075209,0.63061434,0.033076733,0.05495773,0.017979974,0.06506418,0.022970285,0.0017332626,0.00742232,0.0093495855,0.021046946,2.9132085,0.0072246618,0.0
1.5075209,0.63061434,0.048629638,0.02414393,0.009174069,0.051685512,0.021088058,0.0069673667,0.00060108345,0.0047705155,0.015298727,2.914925,0.0052484116,0.0
1.5081158,2.9123344,0.021402134,0.020392632,0.016748453,0.03765344,0.004141327,0.0023045628,0.0020420922,0.008709194,0.016756056,2.9184093,0.005741503,0.0
1.5087566,1.5345194,0.0154540595,0.013408439,0.0068095867,0.021317221,0.0075452775,0.0017667803,0.0012349192,0.0035409848,0.006885972,2.919864,0.0023583195,0.0
1.5087566,1.5345194,0.029284121,0.040806018,0.0074918666,0.044495814,0.025594324,0.0021468403,0.005142533,0.0038957703,0.009450745,2.915227,0.0032418557,0.0
1.5091255,0.418768,0.06533943,0.057778325,0.004329041,0.06730633,0.05581143,0.007385066,0.005419179,0.0022511012,0.0057474505,2.9092624,0.0019755696,0.0
1.5091255,0.418768,0.032133605,0.042084068,0.015829666,0.053701945,0.02051573,0.002565758,0.005152879,0.008231426,0.016593106,2.9147625,0.0056927814,0.0
1.5099442,1.2785944,0.027537772,0.014921962,0.010782702,0.033722118,0.008737616,0.0038479608,0.0005678509,0.0056070043,0.012492251,2.9183345,0.0042806095,0.0
1.5099442,1.2785944,0.047739226,0.042207308,0.008002841,0.053440616,0.036505923,0.0053963684,0.0039580697,0.004161477,0.008467346,2.9129934,0.002906751,0.0
1.5109309,1.062359,0.06917672,0.035997488,0.012889491,0.07359554,0.031578667,0.009782357,0.0011557584,0.006702535,0.021008436,2.9112806,0.007216218,0.0
1.5109309,1.062359,0.03005371,0.06692955,0.011658335,0.07030616,0.026677104,0.00024927,0.009836988,0.0060623335,0.021814529,2.9122021,0.007490733,0.0
1.5147717,0.20978765,0.06805947,0.036010962,0.008281433,0.07007292,0.033997506,0.009577967,0.0012453559,0.004306345,0.018037707,2.9114048,0.0061955336,0.0
1.5147717,0.20978765,0.046319764,0.069089666,0.010038144,0.07288304,0.042526394,0.0030412027,0.008961377,0.0052198344,0.015178323,2.9101295,0.0052156863,0.0
1.5157232,1.7656287,0.044768557,0.044419244,0.018194897,0.062789634,0.026398165,0.004683176,0.004592354,0.009461345,0.018195733,2.9130788,0.006246221,0.0
1.5157232,1.7656287,0.051468696,0.07294459,0.011503821,0.077943265,0.046470016,0.0036776243,0.009261356,0.0059819864,0.015736625,2.9091167,0.0054094167,0.0
1.5166667,0.0,0.052766707,0.040977474,0.0089118285,0.057556994,0.036187187,0.006407297,0.0033420962,0.0046341503,0.010684904,2.9125664,0.0036685527,0.0
1.5192039,2.4606438,0.034278587,0.053853612,0.0034171264,0.05443298,0.033699222,0.0020381208,0.007127627,0.0017769055,0.010366879,2.9131975,0.0035585912,0.0
1.5192039,2.4606438,0.022597674,0.046853434,0.01674971,0.05540497,0.014046138,0.00045820847,0.0067647058,0.008709848,0.020679414,2.9152987,0.007093412,0.0
1.5256081,3.0,0.04587058,0.047406014,0.011061561,0.057726465,0.035550125,0.004650776,0.0050499886,0.005752011,0.01108817,2.9126189,0.0038069417,0.0
1.5270871,2.6383965,0.0756893,0.05639529,0.012165002,0.081568144,0.05051645,0.00937662,0.0043601757,0.0063258004,0.015525848,2.908254,0.0053385464,0.0
1.5270871,2.6383965,0.04867666,0.029574722,0.012693234,0.055010878,0.023240501,0.006552323,0.0015858196,0.006600481,0.01588519,2.9143088,0.005450757,0.0
1.5500783,2.3396297,0.031690065,0.016631998,0.010902522,0.03741061,0.010911453,0.0044702953,0.00055519847,0.005669311,0.013249578,2.9176753,0.004541142,0.0
1.5682844,0.7362038,0.06783943,0.08289669,0.011448018,0.08906979,0.061666332,0.0058808336,0.009795721,0.0059529687,0.0137017295,2.906156,0.004714726,0.0
1.5685322,0.5250948,0.03738494,0.028981913,0.00959341,0.043656543,0.022710307,0.004543469,0.0023586825,0.004988573,0.010473118,2.9156456,0.0035920409,0.0
1.5685322,0.5250948,0.07665326,0.052872732,0.012654016,0.08212682,0.04739917,0.0098268185,0.0036438825,0.0065800874,0.017363824,2.9085417,0.0059699416,0.0
1.5690193,2.7370036,0.0793043,0.07070687,0.010558885,0.08640598,0.06360519,0.008918245,0.0066829138,0.005490619,0.011400394,2.9062376,0.003922733,0.0
1.5690193,2.7370036,0.0701142,0.055064116,0.013970547,0.078457445,0.046720877,0.008465783,0.0045527606,0.007264684,0.015868284,2.9090307,0.0054548355,0.0
1.5699893,0.95207614,0.07515263,0.06991143,0.007975554,0.08092709,0.06413697,0.008224687,0.006861973,0.004147288,0.008395061,2.906794,0.0028880825,0.0
1.5721576,0.31468147,0.026991088,0.018093543,0.0061845235,0.03016071,0.014923924,0.0035010811,0.0011877198,0.0032159518,0.0076183933,2.9180393,0.002610792,0.0
1.5721576,0.31468147,0.061036956,0.06658122,0.0073113893,0.07162837,0.05598981,0.0059153903,0.007356898,0.003801922,0.00781928,2.9087563,0.0026881867,0.0
1.57256,1.408792,0.027748052,0.012992716,0.011476075,0.034013342,0.0067274272,0.004036713,0.00020032623,0.0059675584,0.013642957,2.9185278,0.0046746023,0.0
1.57256,1.408792,0.02205832,0.028093915,0.014950392,0.04032805,0.009824188,0.0018232885,0.0033925432,0.007774203,0.01525193,2.9174693,0.0052277944,0.0
1.573647,1.1727117,0.068569824,0.048887134,0.0064173955,0.07047731,0.046979647,0.008666511,0.003549011,0.0033370454,0.01174883,2.9098992,0.0040375385,0.0
1.573647,1.1727117,0.06963346,0.061215162,0.01425693,0.0802896,0.050559014,0.007898506,0.005709749,0.007413603,0.014865294,2.908393,0.0051111714,0.0
1.5740526,0.104893826,0.031773258,0.04773203,0.008253244,0.05123248,0.028272808,0.0020596345,0.0062089143,0.004291686,0.011479836,2.914168,0.0039393185,0.0
1.5760314,1.9756278,0.07826286,0.055389617,0.018769076,0.0888052,0.044847284,0.009923449,0.0039764065,0.009759919,0.021978958,2.9080777,0.0075578988,0.0
1.5760314,1.9756278,0.08286425,0.07662874,0.0049671535,0.085611045,0.07388194,0.00910425,0.007483018,0.0025829196,0.005864553,2.9051712,0.00201866,0.0
1.578492,2.0971215,0.04726521,0.03763219,0.011450667,0.05487112,0.03002628,0.0056669563,0.003162372,0.005954346,0.01242242,2.9135613,0.004263655,0.0
1.5795265,1.6399013,0.054946817,0.024563283,0.0015871585,0.0550295,0.0244806,0.008084384,0.00018466567,0.00082532235,0.01527445,2.9141674,0.0052414457,0.0
1.5809528,2.2186153,0.055857535,0.06871178,0.002881514,0.06932817,0.055241145,0.004806552,0.008148655,0.0014983871,0.0070435107,2.9090993,0.0024211998,0.0
1.5809528,2.2186153,0.03880211,0.04808511,0.0133849215,0.05761046,0.029276758,0.0033113451,0.005724924,0.0069601587,0.014166851,2.9133375,0.0048627565,0.0
1.5833094,2.554991,0.06535475,0.072179966,0.009444964,0.078809924,0.058724783,0.006264526,0.008039082,0.004911381,0.0100425705,2.907641,0.0034538552,0.0
1.5833094,2.554991,0.06379369,0.078529224,0.008739951,0.082592584,0.059730325,0.005485172,0.009316409,0.004544774,0.01143113,2.9071023,0.003932139,0.0
1.5865115,2.8246691,0.030125085,0.03635333,0.003773807,0.038131997,0.02834642,0.0026472053,0.004266549,0.0019623796,0.004892789,2.915633,0.0016781223,0.0
1.6040038,2.9123344,0.08578196,0.07260998,0.012786629,0.09357906,0.06481289,0.009948738,0.006524022,0.006649046,0.014383085,2.9052951,0.004950645,0.0
1.613164,1.8604555,0.07241873,0.057465483,0.0051835445,0.074039854,0.05584436,0.008697899,0.004810056,0.0026954429,0.0090977475,2.9085014,0.0031279845,0.0
1.6141839,2.4339767,0.039598744,0.06971404,0.009911384,0.072683275,0.036629517,0.0017692762,0.009599252,0.0051539196,0.018026879,2.9108152,0.006193069,0.0
1.621496,3.0,0.052547235,0.07006413,0.0114152,0.07569377,0.046917588,0.004098594,0.008652986,0.0059359036,0.014388092,2.9093194,0.004945518,0.0
1.6290478,0.8417933,0.054531515,0.069229946,0.0148134325,0.07841702,0.045344442,0.004524799,0.008346391,0.007702984,0.016536288,2.9091902,0.005684155,0.0
1.6290478,0.8417933,0.08917602,0.08259825,0.0069918777,0.093613915,0.07816035,0.00978737,0.00807715,0.003635776,0.007726781,2.9037898,0.00266093,0.0
1.6292956,0.6306843,0.078819826,0.08639107,0.007235947,0.09077184,0.07443906,0.0076067043,0.009575226,0.0037626922,0.008166388,2.9045281,0.0028116056,0.0
1.6295434,0.4195753,0.08785923,0.08239553,0.010803443,0.096270874,0.07398389,0.009563527,0.008142965,0.00561779,0.011143491,2.9039607,0.0038373421,0.0
1.6295434,0.4195753,0.014334813,0.029980246,0.014518097,0.038649045,0.0056660157,0.00027047668,0.0043382887,0.0075494098,0.016491514,2.9181259,0.005651406,0.0
1.6295434,0.4195753,0.020354647,0.046525754,0.0061858133,0.047914177,0.018966226,7.553676e-05,0.006880024,0.0032166226,0.014473976,2.915588,0.004964342,0.0
1.6295434,0.4195753,0.032017186,0.06739877,0.010722422,0.07039455,0.029021403,0.00057002343,0.009769235,0.0055756588,0.020686574,2.9119284,0.0071040806,0.0
1.6295434,0.4195753,0.05031287,0.06795358,0.006251984,0.069944605,0.048321843,0.003856562,0.008443147,0.0032510313,0.010811381,2.9098082,0.003715496,0.0
1.6295434,0.4195753,0.07950033,0.07546139,0.011903188,0.089554146,0.065407574,0.008583071,0.007532946,0.0061896574,0.012073286,2.905681,0.0041550626,0.0
1.6314384,0.20978765,0.046363197,0.04079012,0.0020531637,0.04703791,0.040115405,0.0052564717,0.0038074716,0.001067645,0.003461253,2.9133077,0.0011880836,0.0
1.6327055,1.062429,0.072375745,0.08014865,0.007263474,0.084500074,0.06802432,0.006920789,0.008941745,0.0037770062,0.008237876,2.905955,0.0028348255,0.0
1.6333333,0.0,0.017483257,0.036812622,0.0124703925,0.042925037,0.011370843,0.00031056826,0.005336202,0.0064846035,0.015777096,2.9170034,0.0054086656,0.0
1.6363633,1.2830646,0.049870543,0.05142718,0.011395852,0.06207126,0.03922646,0.005065118,0.0054698437,0.0059258426,0.011422399,2.9117167,0.003922909,0.0
1.6363633,1.2830646,0.046443615,0.02325297,0.0100215925,0.05017421,0.019522373,0.0066390056,0.0006094382,0.0052112276,0.015325919,2.915271,0.005257116,0.0
1.6363633,1.2830646,0.044327945,0.05821773,0.010053696,0.063492015,0.03905366,0.0035267028,0.007138046,0.0052279215,0.012219178,2.9115763,0.004196757,0.0
1.6363633,1.2830646,0.03956576,0.047374856,0.003219628,0.04853109,0.038409527,0.0035057294,0.0055360934,0.0016742063,0.005060781,2.9133315,0.0017371112,0.0
1.6363633,1.2830646,0.02089526,0.046536632,0.009810586,0.0498596,0.01757229,0.00017308,0.0068398356,0.0051015043,0.016143654,2.915526,0.0055371327,0.0
1.6363633,1.2830646,0.07463699,0.07465357,0.008534619,0.083179906,0.066110656,0.0077609518,0.0077652647,0.004438001,0.008534625,2.9063187,0.0029365758,0.0
1.6433299,1.5141739,0.047518563,0.064021036,0.012032149,0.07035937,0.04118023,0.0036547366,0.00794538,0.0062567173,0.01458957,2.9105647,0.0050126254,0.0
1.6450584,2.3129625,0.018086469,0.029860005,0.012240633,0.037555844,0.010390634,0.0009626567,0.004023776,0.006365129,0.013582605,2.9177175,0.004655216,0.0
1.647415,2.649338,0.020750731,0.019538933,0.010004683,0.030167844,0.010121818,0.002252596,0.0019375285,0.005202435,0.010023013,2.9185786,0.0034342103,0.0
1.647415,2.649338,0.06714105,0.08218119,0.0054718484,0.08396126,0.06536098,0.0058095367,0.009719974,0.002845361,0.0093001425,2.906315,0.0031999773,0.0
1.647415,2.649338,0.03283377,0.03690473,0.0060063764,0.041211154,0.028527347,0.0030971766,0.0041556265,0.0031233155,0.0063419035,2.9152663,0.0021754114,0.0
1.647415,2.649338,0.042610273,0.03409359,0.007849798,0.04728237,0.02942149,0.005095769,0.0028814315,0.004081894,0.008930441,2.9144828,0.0030641598,0.0
1.647415,2.649338,0.0748428,0.047921102,0.01593702,0.082242996,0.04052091,0.0098835435,0.0028839011,0.008287249,0.020861043,2.9093022,0.0071704625,0.0
1.647415,2.649338,0.0096500665,0.010200663,0.00792251,0.017852657,0.0019980734,0.00096066034,0.0011038152,0.0041197045,0.007927291,2.9208775,0.0027140102,0.0
1.647415,2.649338,0.07021357,0.07014449,0.009359979,0.079539075,0.06081899,0.0073075984,0.007289638,0.0048671886,0.009360043,2.9073234,0.003219471,0.0
1.6502964,1.7452832,0.05530415,0.0698756,0.008775716,0.07399579,0.051183958,0.0046150577,0.008403635,0.0045633717,0.011405917,2.9090307,0.0039208652,0.0
1.6502964,1.7452832,0.06595589,0.050852682,0.010517555,0.071352094,0.045456484,0.008037462,0.004110628,0.005469128,0.012947805,2.9099722,0.00444946,0.0
1.6649072,2.7370036,0.049250115,0.070806906,0.011819124,0.07602431,0.04403271,0.0034405813,0.009045347,0.006145944,0.015995799,2.9096067,0.005497581,0.0
1.6649072,2.7370036,0.06417015,0.052427217,0.013042784,0.07260212,0.043995246,0.0075896434,0.004536481,0.006782247,0.014303438,2.9099958,0.004915278,0.0
1.6734722,2.0704546,0.03405352,0.016454954,0.01134015,0.039607856,0.010900618,0.0049142535,0.00033862705,0.005896877,0.01435362,2.9174292,0.004919955,0.0
1.6734722,2.0704546,0.026840344,0.057501227,0.008651126,0.05977375,0.02456782,0.0003998468,0.008371675,0.004498585,0.017602965,2.9136238,0.0060416055,0.0
1.6759328,2.1919484,0.063155726,0.043187797,0.01596603,0.07200242,0.034341104,0.008125693,0.0029340321,0.008302335,0.018830657,2.9111493,0.0064684614,0.0
1.6759328,2.1919484,0.046712685,0.021402536,0.0074005933,0.04871775,0.019397471,0.00683231,0.00025167197,0.0038483082,0.014660139,2.915449,0.0050284327,0.0
1.6782894,2.528324,0.07379981,0.07159031,0.013090752,0.08583235,0.059557777,0.00784752,0.007273051,0.0068071904,0.0131372865,2.9067574,0.004519568,0.0
1.6782894,2.528324,0.03134608,0.025791014,0.0065456517,0.03567912,0.021457974,0.0036932868,0.00224897,0.0034037386,0.0071105734,2.9166837,0.0024378966,0.0
1.6823995,2.8246691,0.04124775,0.033731047,0.0113192685,0.049416304,0.025562495,0.0048760683,0.0029217254,0.005886019,0.011926904,2.914677,0.004092016,0.0
1.6823995,2.8246691,0.09462102,0.094266705,0.009952623,0.10439806,0.08448966,0.0098682195,0.0097761005,0.0051753637,0.009954199,2.901865,0.0034302764,0.0
1.6888243,0.31468147,0.048751965,0.038740553,0.0054090186,0.0511161,0.036376417,0.005851094,0.0032481267,0.0028126894,0.0073698424,2.9132695,0.0025297496,0.0
1.6888243,0.31468147,0.024791392,0.052624933,0.0068050143,0.054199602,0.02321672,0.00040728814,0.0076440084,0.0035386072,0.015491441,2.9144027,0.005315477,0.0
1.690059,0.73627377,0.015247609,0.029901851,0.010026041,0.03499279,0.01015667,0.0004427201,0.004252823,0.005213541,0.0124180615,2.918032,0.004255629,0.0
1.6903068,0.5251648,0.04998992,0.071127936,0.014841705,0.07877925,0.04233861,0.003550186,0.009046069,0.007717686,0.01822032,2.9094875,0.0062623816,0.0
1.6903068,0.5251648,0.012152786,0.019171542,0.011443547,0.02763173,0.003692598,0.0007164267,0.002541303,0.0059506437,0.011969566,2.9195871,0.0040997462,0.0
1.6907192,0.104893826,0.028475963,0.017224096,0.011333894,0.035503417,0.010196639,0.0038391454,0.0009136599,0.0058936244,0.012653389,2.9179702,0.004336367,0.0
1.6917639,0.9521461,0.027314702,0.028519467,0.0010942945,0.029166222,0.026667945,0.0027467571,0.0030599956,0.0005690331,0.0012491383,2.9168303,0.00042825195,0.0
1.6954217,1.1727817,0.083288826,0.07877409,0.010858239,0.09212186,0.06994105,0.009014186,0.007840354,0.0056462837,0.011090405,2.9048822,0.0038178503,0.0
1.6954217,1.1727817,0.016063344,0.0346191,0.006207067,0.03650396,0.014178485,0.00022323863,0.005047735,0.0032276746,0.011162737,2.9174097,0.0038262496,0.0
1.6998917,2.9123344,0.047382556,0.07500355,0.01004087,0.07826786,0.044118248,0.0027733478,0.0099548055,0.005221252,0.017074805,2.909345,0.005868952,0.0
1.6998917,2.9123344,0.0134069575,0.018571468,0.016457615,0.032648176,-0.0006697532,0.0009914916,0.002334264,0.008557959,0.016658965,2.9195135,0.005706076,0.0
1.7071332,1.3884465,0.07158689,0.04481821,0.009072403,0.074371934,0.042033162,0.009532992,0.0025731367,0.0047176494,0.016169386,2.9100175,0.0055564567,0.0
1.7071332,1.3884465,0.054342862,0.078122236,0.0143768415,0.08488887,0.047576226,0.003796866,0.009979502,0.007475957,0.01865632,2.9082112,0.00641505,0.0
1.7091639,2.4073098,0.0441935,0.038176294,0.0060800742,0.047968626,0.034401163,0.0050654653,0.0035009922,0.0031616383,0.0067837313,2.9138458,0.0023281025,0.0
1.7091639,2.4073098,0.051803805,0.04011767,0.008256778,0.056075867,0.03584561,0.006299114,0.0032607184,0.004293524,0.010115128,2.9127712,0.0034726819,0.0
1.7106047,1.9552822,0.054278374,0.05346392,0.012012176,0.06589022,0.041852072,0.0057084775,0.0054967194,0.006246331,0.012019075,2.910992,0.004128859,0.0
1.7140998,1.6195557,0.022763379,0.03512156,0.0155454585,0.045670964,0.012213977,0.0014034532,0.0046165795,0.008083638,0.016728494,2.9165995,0.0057356157,0.0
1.717384,3.0,0.048001174,0.07009164,0.009948631,0.073911555,0.04418127,0.0032690647,0.009012586,0.0051732874,0.014865143,2.9098277,0.005108599,0.0
1.717384,3.0,0.060973387,0.07972711,0.010542536,0.08445949,0.056241013,0.004878441,0.009754409,0.005482118,0.014109239,2.907285,0.0048530637,0.0
1.7400384,2.2862954,0.030610243,0.037150253,0.0078000263,0.042337988,0.02542251,0.0026733445,0.004373746,0.004056013,0.008457739,2.915489,0.0029009676,0.0
1.7400384,2.2862954,0.04025211,0.027031165,0.011981769,0.047325976,0.019957297,0.005217453,0.0017800068,0.0062305196,0.01368434,2.9155426,0.0046935827,0.0
1.7477372,1.84011,0.06613585,0.038874377,0.0116193015,0.07041615,0.034594078,0.009004523,0.0019165396,0.006042036,0.017911037,2.9112992,0.006152249,0.0
1.748105,0.20978765,0.029857501,0.05312753,0.005801362,0.054493643,0.028491385,0.0012901176,0.0073403246,0.003016708,0.013001129,2.9137764,0.0044619516,0.0
1.748105,0.20978765,0.03254119,0.0589004,0.0030536551,0.059249535,0.03219205,0.0013282645,0.0081816595,0.0015879006,0.013528742,2.9128253,0.004644543,0.0
1.7483243,0.41904643,0.05624134,0.046765566,0.0042072525,0.057839744,0.045167163,0.006588209,0.004124508,0.002187771,0.0063362904,2.9115245,0.0021762792,0.0
1.7483243,0.41904643,0.075119875,0.0656365,0.0075571155,0.07929971,0.061456658,0.008552169,0.006086492,0.0039297,0.008921526,2.9072785,0.0030686865,0.0
1.75,0.0,0.04288123,0.059751883,0.008961649,0.063623704,0.039009415,0.0031437366,0.0075301058,0.004660057,0.012307145,2.9115665,0.004226984,0.0
1.7508223,0.8418633,0.041484203,0.04034943,0.007514684,0.048452888,0.033380743,0.0044028684,0.0041078283,0.0039076353,0.0075360723,2.9139059,0.0025862441,0.0
1.7508223,0.8418633,0.076880746,0.07559168,0.011627626,0.08788169,0.064590745,0.008096144,0.0077609867,0.006046365,0.011645474,2.9059608,0.0040074433,0.0
1.7510703,0.63075423,0.039962776,0.04473196,0.005523997,0.04836408,0.036330655,0.0037841317,0.0050241193,0.0028724782,0.0060167126,2.9135842,0.0020650553,0.0
1.7510703,0.63075423,0.06655109,0.07253731,0.009569261,0.079570636,0.059517756,0.0064543877,0.008010805,0.0049760155,0.01002644,2.9074662,0.0034485147,0.0
1.7540469,2.7370036,0.015324712,0.019343179,0.015456783,0.03292077,0.0017471192,0.0012803293,0.0023251309,0.008037526,0.015586825,2.919211,0.0053393967,0.0
1.7540469,2.7370036,0.06081246,0.07690164,0.0099257,0.08163339,0.056080703,0.005069539,0.009252725,0.0051613636,0.012776343,2.9076207,0.004394089,0.0
1.7544801,1.0624989,0.011602591,0.019587347,0.01674185,0.032806262,-0.0016163252,0.0005838583,0.0026598948,0.008705761,0.017211294,2.9196022,0.005895082,0.0
1.7544801,1.0624989,0.03537365,0.048509944,0.005283282,0.050371133,0.033512466,0.0026542281,0.0060696644,0.0027473064,0.008429334,2.9136753,0.0028930244,0.0
1.7552445,2.612639,0.09063761,0.08556564,0.017257426,0.10554439,0.07065886,0.009821924,0.008503212,0.008973861,0.017442763,2.9032917,0.0060079265,0.0
1.7552445,2.612639,0.026310332,0.038672063,0.005048992,0.040472142,0.024510259,0.001772059,0.004986109,0.0026254756,0.007980942,2.9158013,0.002737135,0.0
1.7594795,1.2770226,0.06507876,0.033492956,0.009097975,0.06751191,0.03105981,0.009231882,0.0010195749,0.0047309464,0.01822605,2.9120233,0.0062588956,0.0
1.7594795,1.2770226,0.06895761,0.04459527,0.014480076,0.07569874,0.037854142,0.009071853,0.002737645,0.0075296387,0.0189223,2.9103384,0.0065017524,0.0
1.7709128,2.1652813,0.07235011,0.07713339,0.010423655,0.08543626,0.06404724,0.007151314,0.008394967,0.0054202997,0.010694511,2.906297,0.0036797724,0.0
1.7709128,2.1652813,0.06916547,0.063137025,0.016458653,0.08288363,0.04941886,0.0076634255,0.0060960315,0.008558499,0.016732387,2.9082294,0.005753462,0.0
1.7709128,2.1652813,0.06044494,0.06588328,0.013651969,0.07708424,0.04924397,0.005862083,0.0072760503,0.007099023,0.013920136,2.9089015,0.0047853584,0.0
1.7709128,2.1652813,0.06886196,0.08035122,0.0062683285,0.0831091,0.06610408,0.006265481,0.009252688,0.0032595305,0.008502513,2.9063275,0.002925518,0.0
1.7709128,2.1652813,0.025696931,0.018049922,0.006829596,0.029700466,0.014046385,0.0032689471,0.001280725,0.0035513896,0.00782704,2.9181898,0.002682156,0.0
1.7709128,2.1652813,0.05939223,0.06408315,0.013075709,0.075022094,0.048453286,0.005810899,0.0070305387,0.006799368,0.013284404,2.9092224,0.0045663076,0.0
1.7715392,2.8246691,0.08010626,0.06508091,0.011925314,0.08668803,0.05849914,0.009503027,0.0055964366,0.0062011625,0.014094444,2.9067802,0.0048488164,0.0
1.7779031,1.4938283,0.07762082,0.072119586,0.0074501676,0.082811914,0.06692848,0.008501661,0.0070713395,0.0038740868,0.007941715,2.9062681,0.0027326162,0.0
1.7779031,1.4938283,0.06213773,0.06340736,0.012830085,0.07561833,0.04992676,0.0063632918,0.0066933963,0.006671644,0.012845783,2.9089894,0.0044158916,0.0
1.7848697,1.7249377,0.052386645,0.07055899,0.013603678,0.07783187,0.045113765,0.0040307674,0.008755577,0.007073912,0.016359054,2.909282,0.005623055,0.0
1.7848697,1.7249377,0.06168517,0.057990033,0.008577675,0.068611994,0.051063206,0.0067034774,0.0057427417,0.00446039,0.008774394,2.9096496,0.0030156188,0.0
1.7861189,2.4916248,0.061183874,0.04771114,0.0145641705,0.070494115,0.0384009,0.007413995,0.003911085,0.007573368,0.016046608,2.9108622,0.005512665,0.0
1.7890314,2.9123344,0.02489021,0.026160054,0.01068581,0.03622979,0.014820476,0.0024895337,0.002819693,0.0055566207,0.010704657,2.9173684,0.0036692852,0.0
1.8065237,3.0,0.029744163,0.016480805,0.010139932,0.03522848,0.010996487,0.004127934,0.0006794619,0.0052727642,0.012115996,2.917911,0.0041522845,0.0
1.8073859,0.104893826,0.0719099,0.07193455,0.012229866,0.0841521,0.059692353,0.007476705,0.007483115,0.0063595297,0.012229875,2.9069312,0.004207143,0.0
1.8073859,0.104893826,0.07045804,0.057193294,0.016420923,0.081535414,0.04611592,0.008362285,0.0049134516,0.008538879,0.017709747,2.9087527,0.0060884333,0.0
1.807605,0.31415263,0.05182714,0.04236961,0.0073236437,0.055816002,0.03838075,0.0061277086,0.0036687523,0.0038082944,0.008717626,2.9125154,0.0029931606,0.0
1.8080453,2.050109,0.06323287,0.03131951,0.00987421,0.06604093,0.028511448,0.0090654595,0.000767987,0.0051345886,0.018764742,2.9124753,0.0064428844,0.0
1.8080453,2.050109,0.005702175,0.0041261557,0.0128817735,0.01782002,-0.007991687,0.0007159557,0.00030619057,0.006698522,0.012905853,2.9220047,0.0044167805,0.0
1.8090876,0.5246359,0.07235147,0.08250118,0.005196838,0.08469003,0.07016263,0.0067328736,0.009371799,0.0027023556,0.0072636977,2.905693,0.002499816,0.0
1.8118336,0.73634374,0.02710421,0.0600282,0.014767717,0.06568142,0.02145099,0.00025076646,0.008811003,0.007679212,0.022115216,2.91331,0.0075910958,0.0
1.8118336,0.73634374,0.0640398,0.062416166,0.00848852,0.07175523,0.054700732,0.0067867804,0.0063646375,0.00441403,0.008527249,2.9088871,0.0029314472,0.0
1.8135386,0.952216,0.031943303,0.050629232,0.008005611,0.053589955,0.028982578,0.0018646005,0.006722942,0.004162917,0.012303689,2.913823,0.0042225244,0.0
1.8135386,0.952216,0.04968979,0.056056395,0.004099155,0.058063127,0.047683053,0.0046711424,0.0063264593,0.0021315604,0.005190037,2.9112165,0.0017827727,0.0
1.8169934,2.3706107,0.08086558,0.07219375,0.009036595,0.08655265,0.066506684,0.009086421,0.006831747,0.004699029,0.010022983,2.9058948,0.00344919,0.0
1.818538,1.1667397,0.07335565,0.05570544,0.016261404,0.083032325,0.046028767,0.009005703,0.0044166488,0.008455929,0.018501779,2.9085941,0.006361073,0.0
1.8302494,1.3824044,0.007762235,0.0061220876,0.0031847772,0.010230828,0.0036534949,0.00093520386,0.0005087655,0.001656084,0.0032886667,2.9215486,0.0011256587,0.0
1.8451778,1.9349366,0.016592398,0.021635115,0.0058760955,0.025507953,0.01271956,0.0013322774,0.0026433833,0.0030555693,0.0063941963,2.9188106,0.0021906856,0.0
1.8451778,1.9349366,0.0475354,0.03522209,0.013553931,0.05626543,0.026492057,0.0059041195,0.0027026588,0.0070480434,0.014886686,2.9138021,0.0051090242,0.0
1.8478678,2.2495964,0.078635,0.055320933,0.0147280395,0.08576097,0.048194952,0.009996537,0.0039348784,0.00765858,0.01878301,2.9080434,0.0064589856,0.0
1.8478678,2.2495964,0.036557585,0.049056705,0.0029582982,0.049721517,0.035892777,0.0028270571,0.0060768276,0.0015383149,0.0069143698,2.9134808,0.0023732334,0.0
1.8486729,1.5992103,0.063175134,0.062360607,0.007660464,0.07043915,0.05509659,0.006633746,0.0064219693,0.003983441,0.0076712817,2.9089906,0.002637094,0.0
1.8486729,1.5992103,0.03942213,0.06629835,0.009853399,0.06952374,0.036196735,0.0020035554,0.008991373,0.005123767,0.016663501,2.9112194,0.0057238904,0.0
1.8606789,2.8246691,0.050057754,0.06020161,0.0147731025,0.07074919,0.039510176,0.0044147847,0.007052188,0.0076820124,0.015619509,2.9107087,0.005366222,0.0
1.8606789,2.8246691,0.05376468,0.024338264,0.017826658,0.062165715,0.01593723,0.007886786,0.000235919,0.0092698615,0.023114242,2.9143255,0.007931249,0.0
1.8618764,2.7003045,0.08042444,0.068333216,0.013733936,0.08938451,0.059373155,0.009307256,0.0061635384,0.007141646,0.015005678,2.9063787,0.0051630153,0.0
1.863074,2.5759401,0.018877521,0.035015292,0.009518962,0.03942509,0.014467723,0.0007045161,0.004900336,0.00494986,0.012478683,2.9170487,0.0042778454,0.0
1.863074,2.5759401,0.05163465,0.04843765,0.0074689984,0.05767429,0.042398013,0.005619369,0.0047881487,0.0038838787,0.007638138,2.9118545,0.002623118,0.0
1.8666667,0.0,0.029029472,0.021872543,0.01624921,0.04208958,0.008812433,0.0035773052,0.0017165036,0.008449588,0.016638573,2.917385,0.005703249,0.0
1.8666667,0.0,0.046973404,0.047166184,0.0041051144,0.05117604,0.04296355,0.004870197,0.004920319,0.0021346593,0.004106246,2.9125218,0.0014098593,0.0
1.8666667,0.0,0.07218356,0.07306235,0.007912367,0.08054751,0.0646984,0.0074385433,0.0076670297,0.0041144304,0.007924557,2.9067736,0.002726238,0.0
1.8668858,0.2092588,0.066310085,0.02991992,0.009590425,0.06868287,0.027547134,0.009734681,0.00027323852,0.0049870205,0.020567868,2.9122868,0.007062446,0.0
1.867105,0.4185176,0.07225969,0.063838124,0.011661762,0.08044759,0.055650227,0.008171887,0.005982283,0.006064116,0.012398683,2.9078026,0.0042639356,0.0
1.867105,0.4185176,0.02041051,0.01195878,0.016262528,0.032987256,-0.00061796606,0.0027819276,0.00058447814,0.008456513,0.01680261,2.9194696,0.0057553644,0.0
1.869851,0.6302254,0.04478413,0.07192536,0.010805213,0.075701624,0.041007865,0.0025405332,0.009597251,0.00561871,0.01734688,2.9099834,0.005961161,0.0
1.872597,0.8419332,0.068050526,0.047090217,0.011124152,0.07285371,0.042287037,0.008712158,0.003262478,0.0057845586,0.015283335,2.9101598,0.005251717,0.0
1.872597,0.8419332,0.014005886,0.015217699,0.0093845455,0.024015877,0.005207707,0.0013620906,0.0016771619,0.004879963,0.009404086,2.9198234,0.0032207721,0.0
1.872597,0.8419332,0.04984788,0.053802136,0.0038578743,0.05616001,0.04749001,0.004875746,0.0059038536,0.0020060944,0.004335001,2.911452,0.0014889481,0.0
1.872597,0.8419332,0.0459765,0.06822978,0.009821084,0.07194416,0.042262122,0.0030458004,0.008831651,0.005106963,0.01484102,2.9102647,0.005099543,0.0
1.872597,0.8419332,0.019808087,0.012727157,0.0042849486,0.02182601,0.010709234,0.0026123535,0.0007713116,0.002228173,0.0055583883,2.9194508,0.0019039158,0.0
1.872597,0.8419332,0.050448824,0.055998757,0.0116909575,0.06523956,0.04120801,0.004813782,0.0062567648,0.0060792975,0.012015777,2.9111376,0.004127519,0.0
1.8775964,1.0564569,0.054551844,0.0663025,0.0071729533,0.06969921,0.05115513,0.00475684,0.0078120097,0.0037299353,0.009272041,2.909517,0.0031867973,0.0
1.8781712,2.9123344,0.0363105,0.032884937,0.011484035,0.046208777,0.022986658,0.0040434855,0.0031528391,0.0059716976,0.011611059,2.9153275,0.0039827633,0.0
1.8801202,2.1432927,0.054022823,0.034757573,0.0065229563,0.056023616,0.03275678,0.007121062,0.002112098,0.003391937,0.0116334185,2.9131246,0.00399345,0.0
1.8801202,2.1432927,0.04144067,0.055182405,0.009816162,0.060293436,0.036329642,0.0032379734,0.006810825,0.005104404,0.011981897,2.9122424,0.00411432,0.0
1.8823103,1.8197644,0.02096434,0.032650054,0.0029919466,0.03337155,0.020242844,0.0012688054,0.004307091,0.0015558121,0.0065643527,2.91708,0.0022503163,0.0
1.8823103,1.8197644,0.024794592,0.024383195,0.008031714,0.032623243,0.016554546,0.0026107263,0.0025037627,0.004176491,0.0080343485,2.917579,0.0027537725,0.0
1.8825957,1.2709806,0.037929095,0.046906013,0.01607623,0.059108615,0.025726499,0.0032444259,0.0055784243,0.008359639,0.016691059,2.9135683,0.0057287347,0.0
1.8825957,1.2709806,0.08584901,0.08163567,0.008683,0.09267724,0.07480743,0.009256936,0.0081614675,0.0045151594,0.008934908,2.9042723,0.0030764702,0.0
1.8939484,2.4549258,0.069081515,0.039454877,0.009101834,0.071654335,0.036882058,0.009495355,0.0017924285,0.0047329534,0.017386138,2.9109025,0.005972766,0.0
1.8956634,3.0,0.043951973,0.035067476,0.005365962,0.046475865,0.032543585,0.005263995,0.0029540267,0.0027903,0.00696614,2.9142225,0.002390394,0.0
1.9010192,1.4877864,0.052998364,0.03771356,0.007459227,0.05603521,0.034676712,0.0067040436,0.002729995,0.0038787976,0.010679249,2.9129074,0.003666182,0.0
1.9172527,2.0281205,0.018667338,0.03569023,0.003080044,0.036230378,0.018127188,0.0006136175,0.005039569,0.0016016227,0.009051595,2.9169962,0.0031030534,0.0
1.9194428,1.7045921,0.029033998,0.03905919,0.0108490875,0.045997694,0.022095494,0.0022375705,0.00484412,0.005641525,0.0119511,2.9154515,0.004099228,0.0
1.9194428,1.7045921,0.05542943,0.057993557,0.007210934,0.06403551,0.049387477,0.0055646575,0.0062313313,0.0037496854,0.0073240176,2.910353,0.0025165393,0.0
1.9194428,1.7045921,0.07763035,0.060646083,0.01564387,0.08693841,0.051338017,0.009398328,0.004982419,0.008134812,0.017800197,2.9075575,0.0061220448,0.0
1.9194428,1.7045921,0.081228875,0.08582173,0.011730622,0.09547859,0.07157201,0.008089558,0.009283702,0.0060999226,0.011953287,2.9043212,0.0041156905,0.0
1.9194428,1.7045921,0.056054216,0.0713843,0.011859341,0.07784005,0.049598463,0.0046338905,0.008619714,0.0061668567,0.014120795,2.9087765,0.004854548,0.0
1.9194428,1.7045921,0.014392623,0.032948975,0.006405664,0.03494542,0.012396176,4.94374e-05,0.004874088,0.003330945,0.011274623,2.9177854,0.0038641028,0.0
1.9248228,2.3339117,0.030040082,0.02123783,0.010049057,0.03660953,0.014668385,0.0038107436,0.0015221584,0.0052255094,0.010970573,2.9173427,0.0037604677,0.0
1.9248228,2.3339117,0.09017781,0.08630486,0.006816777,0.09532783,0.081154846,0.00968058,0.008673614,0.0035447236,0.007086493,2.9032602,0.0024408742,0.0
1.9261667,0.10436497,0.05243264,0.049648184,0.012751838,0.06386802,0.0382128,0.0056701815,0.004946223,0.0066309553,0.012827612,2.9116287,0.0044056484,0.0
1.9261667,0.10436497,0.04060915,0.07062858,0.010091009,0.07370533,0.037532408,0.0018818353,0.009686887,0.005247324,0.018086461,2.9105988,0.0062140003,0.0
1.9263858,0.31362376,0.03188259,0.035563238,0.009720318,0.04361591,0.023829918,0.0030286987,0.0039856667,0.0050545647,0.009892996,2.9155242,0.0033932135,0.0
1.9278684,0.52410704,0.0653991,0.079767264,0.0031390896,0.08042314,0.06474323,0.005680789,0.009416511,0.0016323264,0.007839955,2.9067826,0.0026971248,0.0
1.9306144,0.73581487,0.005352703,0.011406187,0.008668379,0.017561054,-0.0008021649,8.450929e-05,0.001658415,0.0045075566,0.009181609,2.9212253,0.003143068,0.0
1.9306144,0.73581487,0.051775564,0.06489396,0.010532179,0.07074241,0.045927107,0.004361423,0.0077722054,0.0054767323,0.012407653,2.9099877,0.0042638164,0.0
1.9366548,0.9461741,0.043669704,0.03504769,0.0063337605,0.047020376,0.03169702,0.005214166,0.002972442,0.0032935552,0.007661678,2.9142566,0.0026290335,0.0
1.9366548,0.9461741,0.06997204,0.06702542,0.010494057,0.07909571,0.057901755,0.007506927,0.0067408076,0.005456909,0.010596976,2.9077015,0.003644451,0.0
1.9416541,1.1606978,0.023667153,0.043913536,0.010703489,0.048522744,0.01905794,0.00088216586,0.0061462247,0.0055658137,0.014732402,2.915509,0.005053115,0.0
1.9533656,1.3763626,0.04968867,0.034760244,0.014167529,0.058237996,0.026210923,0.006332038,0.002450648,0.007367114,0.016013537,2.913612,0.0054961117,0.0
1.9543852,1.9129481,0.028348163,0.02306286,0.00588102,0.03215299,0.019258033,0.003360462,0.0019862836,0.0030581302,0.006447479,2.917328,0.0022100632,0.0
1.9570752,2.227608,0.020437118,0.027226029,0.008579271,0.033057958,0.014605185,0.0015959247,0.0033610417,0.0044612205,0.009226386,2.9177494,0.0031621587,0.0
1.9673109,2.9123344,0.021589587,0.009721077,0.009104111,0.026522724,0.0047879387,0.0031710602,8.5248124e-05,0.0047341376,0.010867393,2.9195886,0.0037222344,0.0
1.9673109,2.9123344,0.044299282,0.02340299,0.013375683,0.050823838,0.016878434,0.006237035,0.0008039999,0.0069553545,0.016972702,2.9154954,0.00582155,0.0
1.9685084,2.78797,0.037032552,0.05859939,0.0034345088,0.059133127,0.036498815,0.0021691718,0.0077765486,0.0017859444,0.011317156,2.912354,0.0038859136,0.0
1.9697059,2.6636055,0.02870393,0.061172243,0.008226131,0.06313746,0.026738718,0.0004526799,0.008894441,0.004277588,0.01819937,2.9130013,0.006247635,0.0
1.9709034,2.539241,0.04793064,0.05083847,0.012943406,0.062409364,0.03635975,0.0047579748,0.0055140113,0.0067305705,0.013024807,2.9120011,0.004472803,0.0
1.9709034,2.539241,0.030428546,0.026107628,0.0096234325,0.03813105,0.018405125,0.0035015997,0.0023781615,0.0050041843,0.009862963,2.9167514,0.003381489,0.0
1.9717891,1.5931683,0.044632774,0.066114865,0.0075160284,0.06848338,0.04226425,0.0029662054,0.008551547,0.0039083343,0.013109567,2.9106538,0.004503994,0.0
1.9717891,1.5931683,0.07740789,0.06467288,0.007852388,0.08115004,0.06093073,0.009043749,0.005732648,0.0040832413,0.010109656,2.9071295,0.0034775387,0.0
1.9833333,0.0,0.019989952,0.039929528,0.013177627,0.04648386,0.013435621,0.000523668,0.005707957,0.006852365,0.01652412,2.9163709,0.005665987,0.0
1.9848031,3.0,0.020486098,0.037292838,0.015430283,0.046459623,0.011319315,0.00081962836,0.00518938,0.008023746,0.017570153,2.9166114,0.0060241665,0.0
1.9856666,0.20872994,0.04126276,0.052951716,0.009572109,0.05832255,0.035891928,0.0033795882,0.006418716,0.0049774963,0.011215311,2.9125135,0.0038507325,0.0
1.9856666,0.20872994,0.04289239,0.06887292,0.0068653687,0.07057552,0.04118979,0.0024343259,0.009189265,0.0035699913,0.014692865,2.9105394,0.005048159,0.0
1.9858857,0.41798872,0.054650463,0.056529853,0.0031400712,0.058867823,0.052312497,0.005537055,0.006025696,0.0016328369,0.0032776631,2.9106052,0.0011261106,0.0
1.9858857,0.41798872,0.038362358,0.06337119,0.010111603,0.066947974,0.034785576,0.0020389964,0.008541291,0.005258033,0.016081199,2.9116678,0.00552302,0.0
1.9886317,0.62969655,0.027816847,0.06380039,0.0052479985,0.064550154,0.027067078,8.623586e-05,0.009441955,0.002728959,0.018741537,2.9128056,0.0064341873,0.0
1.9886317,0.62969655,0.07823823,0.077542156,0.009905932,0.08780223,0.06797814,0.008191068,0.008010089,0.0051510837,0.009912044,2.9055889,0.0034113717,0.0
1.9893275,2.1213043,0.015655944,0.009538887,0.014346563,0.02726638,-0.0020715473,0.0021053485,0.0005149136,0.0074602123,0.014668964,2.9202764,0.0050231423,0.0
1.9893275,2.1213043,0.047105733,0.073841184,0.017697347,0.0826521,0.038294815,0.0028136307,0.009764846,0.00920262,0.022178642,2.9095068,0.0076228185,0.0
1.9915177,1.7977759,0.069439106,0.06982395,0.014892947,0.08452572,0.05473734,0.007191648,0.0072917077,0.007744332,0.014894189,2.9074466,0.005122773,0.0
1.9915177,1.7977759,0.061784886,0.07445193,0.008569257,0.07877419,0.057462625,0.005437598,0.008731029,0.0044560134,0.010655783,2.9077868,0.003664568,0.0
1.9921125,0.8391515,0.024608519,0.024482086,0.0016591367,0.026205644,0.022884961,0.0025691474,0.0025362747,0.00086275104,0.0016603414,2.9175887,0.00056908,0.0
1.9921125,0.8391515,0.011621826,0.0070097707,0.007668527,0.01732355,0.0013080472,0.0015684101,0.0003692757,0.0039876336,0.008007752,2.9210145,0.0027414283,0.0
2.0007126,1.0504149,0.093227066,0.092122026,0.006235714,0.09893469,0.086414404,0.009781808,0.009494496,0.003242571,0.0062601417,2.902263,0.0021569864,0.0
2.0007126,1.0504149,0.059701256,0.060716126,0.00976565,0.06998752,0.05042987,0.00612977,0.0063936356,0.0050781374,0.009778826,2.9095662,0.0033609222,0.0
2.001778,2.418227,0.025017139,0.031023335,0.015654506,0.04396019,0.012080282,0.0021332987,0.0036949096,0.008140342,0.015939955,2.9168072,0.005464864,0.0
2.001778,2.418227,0.047710937,0.023167925,0.011589408,0.052318536,0.018560326,0.0068762917,0.00049510883,0.0060264915,0.016879104,2.915138,0.0057901563,0.0
2.0057118,1.2649387,0.052353587,0.049654007,0.010809171,0.06189692,0.040110677,0.0056553395,0.0049534487,0.0056207683,0.010893121,2.9116368,0.0037412364,0.0
2.0057118,1.2649387,0.01962977,0.038253825,0.009983329,0.04259393,0.015289667,0.0005888198,0.0054310733,0.005191331,0.013652131,2.9165998,0.004680838,0.0
2.0241354,1.4817444,0.044968154,0.027460624,0.014097623,0.052808706,0.019620072,0.0060422746,0.001490317,0.007330763,0.016594317,2.9149637,0.0056928038,0.0
2.0241354,1.4817444,0.085504524,0.07583301,0.0045189387,0.08728732,0.0740502,0.009646848,0.0071322536,0.002349848,0.0066185594,2.9049637,0.0022783622,0.0
2.02646,2.006132,0.03519313,0.039881296,0.007857702,0.045737103,0.029337324,0.0032944086,0.0045133308,0.0040860046,0.008199889,2.9146662,0.0028133201,0.0
2.0340302,2.3119233,0.03264636,0.068201,0.004867538,0.06885534,0.031992026,0.00062195957,0.009866164,0.0025311194,0.018431656,2.9117675,0.0063300575,0.0
2.0374975,1.6927084,0.034056555,0.038034778,0.015846848,0.052016865,0.020074468,0.0032315804,0.0042659175,0.008240361,0.015971199,2.9150016,0.0054789674,0.0
2.0374975,1.6927084,0.07277195,0.064866066,0.014305114,0.08366024,0.05397778,0.008184941,0.0061294106,0.0074386583,0.014841229,2.9076293,0.005104237,0.0
2.0428333,0.10436497,0.05922166,0.053616438,0.010312194,0.0671053,0.045732796,0.006596259,0.0051389015,0.0053623402,0.010686252,2.9104187,0.0036717232,0.0
2.0451665,0.3130949,0.03575966,0.04622339,0.008496069,0.05096928,0.031013772,0.0029028335,0.0056234025,0.004417956,0.009977754,2.9138892,0.0034242051,0.0
2.0451665,0.3130949,0.036638577,0.02904645,0.005540863,0.039559007,0.026126022,0.0044025974,0.0024286443,0.0028812485,0.0067164926,2.9157224,0.0023035433,0.0
2.0466492,0.5235782,0.06950121,0.07379444,0.0096387,0.081522666,0.06177298,0.0068932525,0.008009492,0.0050121234,0.009874843,2.906993,0.0033969271,0.0
2.0466492,0.5235782,0.016733257,0.02768354,0.00971909,0.033363573,0.011053225,0.0008861365,0.0037332096,0.0050539263,0.011155174,2.9181144,0.0038227336,0.0
2.05013,0.7330332,0.0289844,0.03676313,0.010204605,0.04379444,0.021953091,0.0024076358,0.0044301064,0.005306394,0.010920674,2.9157152,0.0037454527,0.0
2.0561702,0.9433924,0.029039484,0.01519963,0.011935362,0.035915866,0.008323243,0.0040996145,0.0005012527,0.0062063877,0.013796312,2.9181345,0.004727785,0.0
2.0635924,1.8909596,0.05711485,0.03791075,0.014028284,0.064512566,0.030513031,0.0074378634,0.0024447972,0.007294707,0.016999766,2.9124222,0.0058369855,0.0
2.0635924,1.8909596,0.0439975,0.04919509,0.010221538,0.05714303,0.036049563,0.004170327,0.0055217007,0.0053151995,0.010546733,2.9126284,0.0036210362,0.0
2.0647702,1.1546558,0.06800323,0.06476195,0.008977761,0.07550545,0.057259724,0.0073251543,0.0064824224,0.004668435,0.009122863,2.9081774,0.0031369694,0.0
2.0647702,1.1546558,0.053304113,0.025367955,0.008882366,0.05588909,0.022782978,0.007722647,0.00045924663,0.00461883,0.016553055,2.9142616,0.005680017,0.0
2.0662825,2.2056193,0.05105643,0.06672192,0.006570987,0.06911316,0.048665196,0.00408796,0.008160987,0.0034169129,0.010223981,2.909863,0.0035135609,0.0
2.073943,3.0,0.06448538,0.06765823,0.010969659,0.07715559,0.054988027,0.006458997,0.0072839367,0.0057042222,0.011083782,2.9082472,0.0038111552,0.0
2.073943,3.0,0.056110583,0.027937543,0.008678778,0.05856949,0.025478631,0.008032996,0.00070800737,0.0045129643,0.01654543,2.913657,0.0056785787,0.0
2.073943,3.0,0.05558329,0.056668475,0.007916488,0.06406094,0.048190825,0.005696017,0.005978165,0.0041165734,0.007935058,2.9104846,0.0027263702,0.0
2.073943,3.0,0.06570714,0.07717895,0.013312364,0.08593855,0.05694754,0.0059387414,0.00892141,0.0069224285,0.014495505,2.9070392,0.0049863467,0.0
2.0751402,2.8756356,0.03899697,0.061490353,0.010818484,0.065849036,0.034638286,0.0023012005,0.0081494795,0.005625611,0.015605375,2.9118078,0.0053593423,0.0
2.0751402,2.8756356,0.08071827,0.067567155,0.008312921,0.08474189,0.06354353,0.009420486,0.0060011963,0.0043227184,0.010599181,2.9064317,0.0036468022,0.0
2.0763378,2.751271,0.03239473,0.018227383,0.004357573,0.03362772,0.016994394,0.0044741044,0.0007905948,0.0022659379,0.008316662,2.9174166,0.002850694,0.0
2.0763378,2.751271,0.014508667,0.023075214,0.0008472396,0.023158202,0.014425678,0.0008407107,0.0030680124,0.00044056453,0.004366262,2.918883,0.0014958674,0.0
2.0764818,1.3703206,0.04049646,0.03225594,0.012092695,0.04915156,0.023600843,0.0048543923,0.0027118565,0.0062882006,0.012775358,2.9149275,0.004382736,0.0
2.0764818,1.3703206,0.049358834,0.049979188,0.011671402,0.061344534,0.03799349,0.0050849305,0.005246222,0.0060691284,0.011675522,2.9119372,0.0040095374,0.0
2.0775354,2.6269066,0.050909158,0.0385733,0.010626112,0.05702771,0.032454748,0.006256749,0.003049425,0.005525578,0.0122864805,2.9130456,0.004217744,0.0
2.0775354,2.6269066,0.0395646,0.044770837,0.010109228,0.052606717,0.031728715,0.0037086313,0.0050622527,0.005256798,0.010439001,2.9136245,0.003582823,0.0
2.078733,2.502542,0.032046825,0.041265436,0.0060273246,0.044243906,0.029068355,0.0026138173,0.0050106565,0.0031342085,0.0075877756,2.9148643,0.0026031316,0.0
2.078733,2.502542,0.074250095,0.077541135,0.010506038,0.08652974,0.06526149,0.0074653076,0.008320978,0.005463139,0.010634124,2.9060373,0.0036593212,0.0
2.078733,2.502542,0.05975966,0.059851646,0.009991404,0.069797166,0.049814142,0.006207829,0.0062317452,0.005195529,0.009991512,2.909657,0.003433914,0.0
2.078733,2.502542,0.062590025,0.05619895,0.004846829,0.065199934,0.05358904,0.0070078657,0.005346186,0.0025203507,0.0058054477,2.9097495,0.001995171,0.0
2.078733,2.502542,0.030063048,0.032147344,0.011828937,0.042979952,0.01923044,0.0029639814,0.0035058986,0.0061510466,0.011874756,2.9161131,0.0040721176,0.0
2.078733,2.502542,0.04845787,0.061377868,0.009821763,0.06667366,0.043162078,0.004031858,0.007391057,0.005107316,0.011755791,2.9107563,0.004038741,0.0
2.0898438,1.5812845,0.014594553,0.02337651,0.016591603,0.03614834,0.0018227249,0.0008328408,0.0031161492,0.008627633,0.017162807,2.9188395,0.005880011,0.0
2.0985348,2.0993156,0.05195958,0.060721446,0.007285894,0.06484209,0.047838937,0.0047203703,0.0069984547,0.0037886645,0.008501576,2.9104364,0.0029210658,0.0
2.0985348,2.0993156,0.06804515,0.03713097,0.008713492,0.070331976,0.034844145,0.009487999,0.0014503152,0.0045310156,0.017743915,2.9112804,0.0060948837,0.0
2.1,0.0,0.024220813,0.053369384,0.0046355138,0.054088816,0.023501381,0.00024537573,0.007824004,0.002410467,0.015293717,2.9143832,0.005247669,0.0
2.1023333,0.20872994,0.031064833,0.05933055,0.010734028,0.062944725,0.027450662,0.0010260165,0.008375102,0.005581694,0.017747032,2.912943,0.006092475,0.0
2.1046665,0.41745988,0.037115782,0.069273606,0.0005351059,0.06928251,0.03710688,0.0013517307,0.009712764,0.00027825503,0.016087815,2.911144,0.005526286,0.0
2.1046665,0.41745988,0.041885637,0.031929553,0.0160594,0.05372084,0.020094348,0.0051326803,0.0025440985,0.008350887,0.016813245,2.9148078,0.005768217,0.0
2.1046665,0.41745988,0.06280342,0.0719434,0.01173127,0.079963386,0.054783434,0.0058186357,0.008195031,0.0061002597,0.012589976,2.9079545,0.0043294956,0.0
2.1046665,0.41745988,0.037954044,0.02393012,0.00896131,0.04232069,0.019563476,0.005041086,0.0013948659,0.0046598804,0.011378608,2.9161499,0.0039019284,0.0
2.1046665,0.41745988,0.019543367,0.030617487,0.004164065,0.03200852,0.018152336,0.0011687283,0.0040479996,0.0021653136,0.006928093,2.9174683,0.0023746935,0.0
2.1046665,0.41745988,0.03496378,0.048196316,0.012223236,0.055479057,0.027681036,0.002604095,0.0060445536,0.0063560824,0.013899011,2.9137568,0.004770134,0.0
2.1081474,0.6269148,0.01297988,0.021780051,0.0127193825,0.03083892,0.0039210115,0.0006634941,0.0029515382,0.0066140783,0.013458954,2.9192007,0.004610493,0.0
2.1095724,1.7858922,0.052773718,0.039314497,0.00890127,0.057202972,0.034885243,0.006538285,0.003038888,0.00462866,0.011158865,2.9127526,0.0038310376,0.0
2.1109853,2.3962383,0.053130016,0.06562737,0.008209469,0.06969573,0.04906165,0.0045507275,0.007800039,0.0042689233,0.0103170425,2.9097528,0.0035456766,0.0
2.1109853,2.3962383,0.024348186,0.025362235,0.0093798805,0.034248784,0.015461638,0.0024531153,0.0027167678,0.0048775375,0.009393573,2.917519,0.0032197125,0.0
2.111628,0.83636975,0.009426061,0.0078957435,0.010120808,0.018810593,-0.001488789,0.0010996748,0.00070179254,0.0052628196,0.010149691,2.921162,0.0034745391,0.0
2.111628,0.83636975,0.055334307,0.05429357,0.009962021,0.06478954,0.04483833,0.005835945,0.0055653527,0.005180251,0.009975605,2.9107797,0.0034271246,0.0
2.120228,1.0476333,0.06273723,0.04417942,0.008549691,0.066075586,0.040841065,0.00797218,0.00314715,0.004445839,0.01261726,2.9110847,0.0043342127,0.0
2.128828,1.2588967,0.059688687,0.077968426,0.0039897654,0.07880129,0.058855817,0.0047818027,0.009534535,0.0020746777,0.009972736,2.907627,0.0034298538,0.0
2.128828,1.2588967,0.07111527,0.0757881,0.011466739,0.08515403,0.061749335,0.007031506,0.008246442,0.0059627034,0.011702346,2.9065871,0.0040261466,0.0
2.128828,1.2588967,0.06326618,0.031796295,0.011419049,0.06697303,0.028089453,0.009034333,0.0008521636,0.005937905,0.019441789,2.9124181,0.00667548,0.0
2.128828,1.2588967,0.03218449,0.04301193,0.008050486,0.047299687,0.027896728,0.0025026458,0.00531778,0.0041862526,0.009701479,2.9146526,0.0033285199,0.0
2.128828,1.2588967,0.030456375,0.035404775,0.009117447,0.04237777,0.02348338,0.0027814875,0.0040680715,0.0047410717,0.009447195,2.9157026,0.0032401092,0.0
2.128828,1.2588967,0.052634705,0.03602956,0.0090754,0.056632362,0.0320319,0.00676921,0.002451872,0.004719208,0.012300231,2.9131377,0.0042223306,0.0
2.1356673,1.9841434,0.032757845,0.027530223,0.006274211,0.036940925,0.023347143,0.00381457,0.0024553884,0.0032625895,0.006796891,2.9163294,0.0023306322,0.0
2.1356673,1.9841434,0.054623492,0.046979558,0.0135208275,0.064852156,0.036750894,0.0062770694,0.004289646,0.00703083,0.014050631,2.9116824,0.0048256055,0.0
2.1365926,2.9302769,0.06406293,0.027639054,0.016119022,0.070171714,0.021530269,0.009503606,3.3398977e-05,0.00838189,0.024320722,2.912796,0.008349613,0.0
2.1365926,2.9302769,0.05273337,0.025069743,0.004346318,0.05340016,0.024402952,0.0076420316,0.00044949068,0.0022600852,0.0144986035,2.9143593,0.0049748854,0.0
2.1377902,2.8059123,0.0667505,0.037152953,0.013522299,0.071998075,0.031905375,0.0092506595,0.001555298,0.007031595,0.02004635,2.9114237,0.006885411,0.0
2.1389878,2.6815479,0.074538335,0.04985227,0.005498054,0.07570748,0.04868312,0.009677499,0.0032591226,0.0028589878,0.013512179,2.9091194,0.004644766,0.0
2.140185,2.5571833,0.041728914,0.049638953,0.008390043,0.05495944,0.03640843,0.0037228232,0.0057794335,0.004362822,0.009275503,2.9128337,0.0031843574,0.0
2.140185,2.5571833,0.0081608,0.009873416,0.0066944486,0.015766101,0.002268115,0.00071513903,0.0011604192,0.003481113,0.006748993,2.9210818,0.002310443,0.0
2.1421902,1.4698608,0.0671112,0.065302536,0.008745491,0.074999,0.057414748,0.0071206396,0.006650387,0.0045476547,0.008792125,2.908217,0.0030232011,0.0
2.1432376,2.2899346,0.0395382,0.03849913,0.012717729,0.051747005,0.026290331,0.0041930196,0.003922862,0.0066132187,0.012728337,2.9143329,0.004367496,0.0
2.1432376,2.2899346,0.044586927,0.06312914,0.007542872,0.06580995,0.041906115,0.0031907472,0.008011722,0.003922293,0.011951918,2.9109948,0.004105785,0.0
2.1555524,1.6808248,0.083908305,0.07680662,0.0060517536,0.08737403,0.07334089,0.009280393,0.0074339565,0.0031469115,0.0070165694,2.9050338,0.002415314,0.0
2.1555524,1.6808248,0.010362907,0.0048226775,0.00904713,0.01705451,-0.001868925,0.00150988,6.942059e-05,0.004704507,0.009461718,2.9214022,0.003238759,0.0
2.1568093,3.0,0.06375463,0.08179382,0.0012561531,0.081880875,0.06366759,0.005223425,0.009913612,0.00065319956,0.0091066435,2.9067397,0.0031329407,0.0
2.1595,0.10436497,0.06338215,0.06713431,0.011244333,0.076658,0.053858466,0.0062990733,0.0072746365,0.0058470527,0.011399768,2.9084303,0.0039195605,0.0
2.1618333,0.3130949,0.06110744,0.074876636,0.0073851137,0.078088455,0.057895623,0.005281176,0.008861166,0.0038402588,0.010096416,2.9078155,0.0034721652,0.0
2.1618333,0.3130949,0.028637996,0.023098646,0.009744154,0.035998456,0.015738185,0.0034104204,0.0019701894,0.0050669597,0.010130135,2.9172912,0.0034724458,0.0
2.1661646,0.5207965,0.053735454,0.050004113,0.011468957,0.0634895,0.04025007,0.0058795307,0.0049093827,0.0059638573,0.011619713,2.911442,0.0039910506,0.0
2.1661646,0.5207965,0.08400224,0.08469281,0.016027983,0.10037923,0.068315834,0.008682367,0.008861916,0.00833455,0.016031697,2.9041362,0.005520298,0.0
2.1696455,0.73025143,0.069731824,0.05851575,0.007545143,0.07352481,0.054722764,0.008126963,0.0052107833,0.003923474,0.009401023,2.9086854,0.0032320523,0.0
2.171012,2.4774647,0.02141457,0.034992106,0.012613328,0.042527564,0.013879114,0.0011680673,0.004698226,0.00655893,0.0143242255,2.916766,0.0049109957,0.0
2.171012,2.4774647,0.05883698,0.06917512,0.009384325,0.07471982,0.05329228,0.0053126705,0.008000585,0.0048798486,0.010713769,2.908712,0.003683338,0.0
2.17549,2.183631,0.03701845,0.03890578,0.018058753,0.05604551,0.019878725,0.0037027064,0.0041934126,0.009390551,0.018083394,2.9145706,0.0062044794,0.0
2.17549,2.183631,0.005888891,0.008676333,0.01220366,0.019565599,-0.005000375,0.00039502405,0.001119759,0.0063459026,0.012282987,2.921472,0.0042043827,0.0
2.175686,0.94061065,0.037846465,0.053313725,0.010932668,0.0589716,0.032188594,0.0027295854,0.006751073,0.0056849867,0.013391502,2.912857,0.004597377,0.0
2.1816473,1.879076,0.05635179,0.07003805,0.008949508,0.07446089,0.051928945,0.0047930563,0.008351485,0.0046537435,0.011265971,2.9088945,0.003872939,0.0
2.1842859,1.1518742,0.07116815,0.04518586,0.009235773,0.07411656,0.04223745,0.009428104,0.0026727107,0.0048026014,0.015939554,2.9100232,0.005477466,0.0
2.1842859,1.1518742,0.074178904,0.060340796,0.009000621,0.07861258,0.05590712,0.008793977,0.0051960694,0.0046803225,0.011352731,2.90798,0.0039039922,0.0
2.1945364,1.358437,0.055774994,0.07504398,0.007673644,0.07772647,0.05309249,0.004297618,0.009307553,0.0039902944,0.012316989,2.9083962,0.004234976,0.0
2.1945364,1.358437,0.035940353,0.0661781,0.015450572,0.07267636,0.02944209,0.0013792522,0.009241065,0.008034296,0.021617135,2.9116244,0.0074244244,0.0
2.1992426,2.8605535,0.057034463,0.07552378,0.0018144437,0.07570016,0.056858085,0.0044894167,0.009296638,0.0009435107,0.009421036,2.9082007,0.0032394722,0.0
2.1992426,2.8605535,0.09517079,0.09533637,0.00529915,0.10055338,0.08995378,0.009884845,0.009927897,0.0027555577,0.005299799,2.9016829,0.0018264571,0.0
2.20044,2.7361891,0.03872078,0.021897368,0.008748423,0.04244545,0.018172694,0.005339186,0.00096510013,0.0045491797,0.012136378,2.9162922,0.004161578,0.0
2.2016375,2.6118245,0.06873166,0.0793157,0.01452527,0.08948295,0.05856441,0.006322536,0.009074387,0.0075531397,0.015459269,2.9064586,0.005318937,0.0
2.2016375,2.6118245,0.03746064,0.06877164,0.0060744407,0.0699088,0.03632348,0.0014536483,0.0095945075,0.0031587088,0.016792659,2.9111617,0.0057683703,0.0
2.2032642,2.371161,0.033562038,0.027200699,0.012221559,0.043010034,0.017752703,0.0039866357,0.0023326878,0.00635521,0.012628665,2.916276,0.0043304083,0.0
2.2077422,2.0773273,0.051942017,0.03620255,0.010581075,0.05725909,0.030885478,0.0066296477,0.0025373863,0.005502159,0.013186806,2.913196,0.004526577,0.0
2.2077422,2.0773273,0.053038392,0.04036856,0.004037342,0.054215554,0.0391914,0.0065042386,0.003210083,0.0020994176,0.0075120777,2.9126043,0.0025791617,0.0
2.2077422,2.0773273,0.05568166,0.04440058,0.0120293535,0.063327245,0.036755,0.006670816,0.0037377356,0.0062552635,0.013286123,2.9118536,0.004562772,0.0
2.2077422,2.0773273,0.028448503,0.018892856,0.0046343086,0.030326838,0.017014524,0.0037039844,0.0012195164,0.0024098402,0.006656157,2.9177854,0.002281236,0.0
2.2077422,2.0773273,0.018661048,0.038482275,0.016183047,0.047548257,0.009595064,0.00039469308,0.0055482117,0.008415183,0.018976595,2.916683,0.006506225,0.0
2.2077422,2.0773273,0.043814607,0.060887255,0.010246847,0.0656876,0.039014265,0.003225052,0.00766394,0.00532836,0.013336666,2.9113338,0.004580947,0.0
2.2078986,1.5694009,0.05363347,0.038985692,0.010088949,0.05877659,0.033842575,0.0067204065,0.0029119852,0.005246253,0.012467008,2.9126928,0.0042802347,0.0
2.2166667,0.0,0.06369785,0.048848562,0.011229298,0.069735095,0.04281132,0.00778282,0.003922005,0.005839234,0.013461888,2.9104514,0.004625361,0.0
2.2189999,0.20872994,0.08630138,0.08695117,0.00904611,0.09567822,0.077574335,0.008924658,0.009093603,0.004703977,0.009051941,2.9036236,0.0031174638,0.0
2.2189999,0.20872994,0.089340106,0.08718335,0.014386414,0.1026885,0.07383495,0.009459597,0.008898839,0.0074809343,0.014426775,2.9032557,0.0049691712,0.0
2.219459,2.9302769,0.055724442,0.04815934,0.008231212,0.06100062,0.04288316,0.0063854186,0.004418493,0.00428023,0.009058729,2.9114258,0.0031114407,0.0
2.2223046,0.4161533,0.01466002,0.013203884,0.009153097,0.02311396,0.0047499444,0.0016382205,0.0012596251,0.00475961,0.009182008,2.9199762,0.003144549,0.0
2.2223046,0.4161533,0.051059045,0.04635453,0.013725492,0.06263238,0.034781188,0.0056770924,0.004453918,0.0071372553,0.013925597,2.9121537,0.0047818893,0.0
2.227627,1.7740085,0.036902163,0.034188144,0.010369189,0.046002764,0.025087547,0.0040495177,0.0033438732,0.0053919777,0.010457609,2.9151144,0.0035873752,0.0
2.2276628,0.6241331,0.06704484,0.049736854,0.011985427,0.073174015,0.043607682,0.008322686,0.0038226086,0.0062324214,0.014783166,2.909975,0.0050801695,0.0
2.2276628,0.6241331,0.048184965,0.0698184,0.017789718,0.07982176,0.03818161,0.003323828,0.00894852,0.009250652,0.020820074,2.9098377,0.0071550636,0.0
2.2311437,0.83358806,0.048526943,0.03995499,0.009568477,0.054725494,0.03375644,0.005715414,0.0034867062,0.0049756076,0.010484528,2.9131582,0.0035990246,0.0
2.2311437,0.83358806,0.06689073,0.07844169,0.009198881,0.08352787,0.06180456,0.0060556605,0.009058909,0.0047834176,0.010861656,2.9067638,0.0037366834,0.0
2.2324643,2.532106,0.033564504,0.047180735,0.012407295,0.054525055,0.026220182,0.0024286422,0.0059688613,0.006451793,0.0141524365,2.9140284,0.0048566572,0.0
2.2355168,2.2648573,0.04906487,0.069369465,0.008043482,0.07216965,0.04626469,0.0035189872,0.008798182,0.00418261,0.012952479,2.9097893,0.0044513457,0.0
2.2396758,3.0,0.06932995,0.049997076,0.0108876815,0.0742231,0.045103922,0.008718277,0.0036917313,0.0056615938,0.014559589,2.909689,0.00500383,0.0
2.2397437,1.0448515,0.07445566,0.08546058,0.0047000684,0.08719468,0.07272157,0.006885005,0.009746282,0.0024440354,0.007236555,2.9051235,0.002490963,0.0
2.2397437,1.0448515,0.064915165,0.079630345,0.010809897,0.08534899,0.059196517,0.005603392,0.009429338,0.005621146,0.013076238,2.9068525,0.0044984184,0.0
2.247177,1.253191,0.023624638,0.036855876,0.007905759,0.04054887,0.019931646,0.0014249254,0.004865047,0.0041109943,0.010308611,2.9163077,0.003534816,0.0
2.247177,1.253191,0.07084535,0.07940782,0.0148053225,0.09053849,0.05971469,0.0067000417,0.008926285,0.007698767,0.0154118985,2.9062104,0.005303091,0.0
2.2537222,1.9722598,0.022827014,0.039761193,0.015218085,0.048709087,0.0138791185,0.0010531435,0.005456029,0.007913403,0.017414983,2.9160707,0.0059720716,0.0
2.2537222,1.9722598,0.061743196,0.03550659,0.011986006,0.066394374,0.030855421,0.008467746,0.00164623,0.0062327227,0.017769476,2.912172,0.006101795,0.0
2.2602448,1.457977,0.07674384,0.08135205,0.0067033847,0.08613627,0.07195963,0.007621919,0.008820051,0.0034857597,0.0070883185,2.9053283,0.002439765,0.0
2.2602448,1.457977,0.09150815,0.086264566,0.0151328975,0.104244694,0.07352802,0.009925845,0.008562515,0.007869106,0.015358336,2.9031153,0.005290295,0.0
2.2618923,2.7908304,0.026168538,0.05459586,0.010510722,0.058059968,0.022704432,0.00050419633,0.0078953,0.005465575,0.017677769,2.9140263,0.006066441,0.0
2.2618923,2.7908304,0.043810878,0.05650592,0.002845394,0.057114493,0.0432023,0.0035661175,0.0068668276,0.0014796047,0.0069560967,2.911827,0.0023889113,0.0
2.26309,2.6664658,0.017707739,0.018980471,0.010099134,0.028463269,0.00822494,0.0017423315,0.0020732419,0.005251549,0.010119164,2.9189837,0.003466674,0.0
2.26309,2.6664658,0.08609038,0.082274884,0.005664116,0.0901594,0.07820587,0.009251007,0.008258978,0.00294534,0.0059767663,2.9041734,0.0020579922,0.0
2.2632911,2.4523873,0.009437959,0.010628796,0.00578949,0.015853405,0.00421335,0.0008886623,0.0011982799,0.0030105344,0.0058200276,2.9208531,0.001992578,0.0
2.2632911,2.4523873,0.033075303,0.059885915,0.014381837,0.06614122,0.026820004,0.0013486033,0.008319362,0.0074785547,0.019660607,2.9126544,0.0067500654,0.0
2.267769,2.1585536,0.04808687,0.027166793,0.0073115323,0.05038892,0.024864744,0.0066327997,0.0011935802,0.0038019964,0.012762088,2.9146461,0.0043786066,0.0
2.267769,2.1585536,0.013492267,0.013241471,0.007206114,0.020574074,0.0061596637,0.0014227576,0.0013575506,0.003747179,0.0072072055,2.9201033,0.0024681338,0.0
2.273607,1.668941,0.026376225,0.052801766,0.0042138654,0.053457446,0.025720544,0.00068193494,0.007552575,0.0021912097,0.013868451,2.9142046,0.004758915,0.0
2.273607,1.668941,0.017344676,0.01317931,0.0052169543,0.020879304,0.009644682,0.0021287447,0.0010457494,0.002712816,0.005617311,2.919677,0.0019239496,0.0
2.2761667,0.10436497,0.036919255,0.03597688,0.016091798,0.052546762,0.020349374,0.0039131073,0.0036680896,0.008367734,0.016098693,2.9149113,0.005522876,0.0
2.2761667,0.10436497,0.019559614,0.0145801855,0.00013530567,0.01956329,0.014576511,0.0024225952,0.0011279436,7.035894e-05,0.002493389,2.9192703,0.0008541138,0.0
2.2794712,0.31178832,0.030299086,0.050294925,0.0018065496,0.05045683,0.030137181,0.0015914292,0.0067903465,0.0009394057,0.010159824,2.9140453,0.0034865018,0.0
2.282109,2.8605535,0.09319664,0.09392196,0.0037424047,0.09731923,0.08979936,0.009635874,0.009824458,0.0019460503,0.0037599355,2.902064,0.0012956073,0.0
2.2838027,0.5194899,0.033395816,0.026240876,0.011109423,0.04148957,0.018147117,0.0040312493,0.0021709655,0.0057768994,0.011671227,2.9164026,0.004001926,0.0
2.289161,0.72746974,0.044943377,0.030924644,0.009002151,0.049343217,0.026524808,0.0057675717,0.0021227016,0.004681118,0.011409204,2.914577,0.003914532,0.0
2.289161,0.72746974,0.036292747,0.036243547,0.006865435,0.043133624,0.029402666,0.0037782823,0.003765491,0.0035700258,0.006865479,2.9149518,0.0023552633,0.0
2.2939167,2.5867472,0.03934631,0.038766474,0.012084226,0.051144093,0.026968688,0.004137243,0.0039864853,0.006283797,0.012087703,2.9143245,0.004147686,0.0
2.2952015,0.9378289,0.0632554,0.044586778,0.0053781387,0.06469391,0.043148264,0.008034714,0.0031808715,0.0027966318,0.010772824,2.9109807,0.0037007544,0.0
2.2952015,0.9378289,0.039829247,0.01987093,0.012592912,0.0459176,0.013782574,0.0056989896,0.00050982775,0.0065483134,0.016067512,2.9163954,0.0055093737,0.0
2.2955434,2.3460836,0.07102978,0.06129888,0.009524777,0.07685984,0.055468816,0.008146107,0.005616072,0.0049528833,0.0106955115,2.9082265,0.0036776748,0.0
2.299702,1.8671923,0.027010178,0.058607478,0.00917506,0.06107845,0.024539204,0.0003444687,0.008559766,0.004771031,0.018269625,2.9134803,0.006270722,0.0
2.299702,1.8671923,0.061028074,0.041201662,0.0057239253,0.06256192,0.03966782,0.007893379,0.0027385126,0.0029764408,0.011447052,2.9116118,0.0039315172,0.0
2.3023255,2.9302769,0.029374328,0.016048888,0.00546106,0.03132642,0.014096795,0.004094314,0.0006297,0.0028397508,0.008614813,2.9180012,0.0029522993,0.0
2.3026347,1.1461684,0.07439341,0.0648122,0.009118884,0.079903476,0.059302125,0.008484248,0.005993133,0.004741819,0.010300675,2.907453,0.003542852,0.0
2.3128853,1.3527311,0.019290265,0.018262254,0.0073921066,0.026186217,0.011366305,0.002086372,0.0018190893,0.0038438952,0.007409956,2.9188864,0.0025386242,0.0
2.3152666,2.0660818,0.020046763,0.02564179,0.011927769,0.035095714,0.010592839,0.0016484511,0.0031031577,0.0062024393,0.012251438,2.9179714,0.004198615,0.0
2.3152666,2.0660818,0.017987626,0.024941266,0.008848256,0.030971281,0.011957609,0.0013283289,0.003136275,0.004601093,0.0095068365,2.9182818,0.0032576828,0.0
2.3225422,3.0,0.04726411,0.034987345,0.0144838765,0.05685667,0.025394792,0.0058730547,0.0026810959,0.007531615,0.01573094,2.913859,0.0053986623,0.0
2.3245423,2.721107,0.05814168,0.05835207,0.008887977,0.067135476,0.049358275,0.006030323,0.006085025,0.004621748,0.0088886,2.9100075,0.003054494,0.0
2.3245423,2.721107,0.04089858,0.03352482,0.0039122803,0.04258748,0.03183592,0.004828605,0.0029114275,0.0020343857,0.00537578,2.9147394,0.0018443434,0.0
2.3245423,2.721107,0.026723241,0.045572445,0.011436043,0.05096696,0.021328729,0.0013089788,0.0062097716,0.005946742,0.014819115,2.9149787,0.0050837817,0.0
2.3245423,2.721107,0.038020715,0.047673684,0.003303483,0.04869596,0.036998443,0.003201222,0.005710994,0.001717811,0.005848758,2.9134717,0.0020074875,0.0
2.3245423,2.721107,0.035122164,0.032622278,0.011189729,0.045131546,0.022612896,0.0038476954,0.0031977256,0.0058186585,0.011259325,2.9154906,0.0038618972,0.0
2.3247435,2.5070286,0.069615036,0.07888311,0.01073341,0.085940115,0.06255803,0.0065170527,0.008926753,0.0055813724,0.011691041,2.9064078,0.0040225056,0.0
2.3259532,1.5575172,0.03377577,0.052163593,0.005534536,0.0537009,0.03223846,0.002078429,0.0068592634,0.0028779586,0.01073122,2.9134443,0.003683345,0.0
2.3259532,1.5575172,0.07554967,0.07686695,0.009232816,0.08546459,0.06695203,0.007754416,0.008096909,0.004801064,0.009256281,2.905967,0.003185267,0.0
2.3277957,2.23978,0.05562687,0.061167862,0.013506784,0.07218537,0.04460937,0.005352996,0.0067936545,0.0070235273,0.013787998,2.9099736,0.0047381865,0.0
2.3277957,2.23978,0.06974284,0.059814878,0.011405013,0.07721733,0.0523404,0.0080276355,0.0054463656,0.005930606,0.012438467,2.908538,0.0042765355,0.0
2.3333333,0.0,0.061397288,0.080338284,0.0026922245,0.08071352,0.061022054,0.004907919,0.009832579,0.0013999565,0.009845732,2.9071684,0.0033867084,0.0
2.3333333,0.0,0.071057424,0.06263221,0.0055427435,0.07380672,0.05988292,0.008047137,0.005856583,0.0028822264,0.006961899,2.9080734,0.00239399,0.0
2.3333333,0.0,0.059990637,0.054867104,0.015235572,0.072878316,0.041979425,0.006638661,0.0053065424,0.007922497,0.015449446,2.9101915,0.0053087384,0.0
2.336638,0.20742336,0.021002172,0.015805844,0.013033515,0.031693965,0.0051140497,0.002589539,0.0012384942,0.006777427,0.013289958,2.9189703,0.004552961,0.0
2.3399425,0.41484672,0.04163983,0.054275617,0.012118946,0.061624642,0.03429081,0.0033449503,0.006630255,0.006301851,0.013666917,2.912322,0.00469279,0.0
2.3399425,0.41484672,0.013686098,0.021916756,0.010319121,0.02891089,0.0066919615,0.0007813627,0.0029213338,0.0053659426,0.011109464,2.9191058,0.0038057764,0.0
2.3447587,2.7908304,0.08350718,0.068744645,0.0069557424,0.08626817,0.06598365,0.009836222,0.005997965,0.0036169856,0.010142259,2.9059856,0.0034901272,0.0
2.3447587,2.7908304,0.081800185,0.071301766,0.006058439,0.08456714,0.068534814,0.009326095,0.0065965056,0.0031503881,0.008016162,2.90589,0.002758591,0.0
2.345301,0.6228265,0.029261133,0.061891202,0.004882906,0.06260623,0.0285461,0.000498012,0.0089818295,0.0025391108,0.017030064,2.9128578,0.005846514,0.0
2.345682,1.7621248,0.06331657,0.049271964,0.0021178268,0.06362897,0.04895956,0.0076804017,0.004028804,0.0011012699,0.0073347054,2.910447,0.0025201302,0.0
2.345682,1.7621248,0.023452537,0.01325487,0.013451828,0.032739453,0.0039679557,0.0032344814,0.0005830884,0.0069949497,0.014385749,2.9189816,0.0049283453,0.0
2.3506591,0.8308063,0.02828394,0.051085334,0.0043668984,0.051893067,0.02747621,0.0011630208,0.0070913825,0.002270787,0.012208428,2.9141831,0.004189314,0.0
2.3506591,0.8308063,0.0651379,0.04800904,0.0033968808,0.06578696,0.04735999,0.008110391,0.0036568888,0.0017663778,0.009213483,2.910384,0.0031657277,0.0
2.3506591,0.8308063,0.02436229,0.04066894,0.009316047,0.044895656,0.020135574,0.0012617591,0.0055014878,0.0048443438,0.012380041,2.9157958,0.004245853,0.0
2.3506591,0.8308063,0.07390795,0.0475885,0.012765743,0.079082415,0.042414036,0.009739343,0.0028962865,0.0066381856,0.01833419,2.9094448,0.006301611,0.0
2.3506591,0.8308063,0.07457065,0.073552735,0.013312634,0.08738405,0.06073933,0.007834744,0.0075700865,0.006922569,0.013322361,2.90645,0.0045837224,0.0
2.3506591,0.8308063,0.03832974,0.048179492,0.011198256,0.055487983,0.031021245,0.0032180115,0.0057789474,0.0058230925,0.012233369,2.9133801,0.0041990294,0.0
2.355369,2.6413884,0.04629467,0.05213593,0.0060379156,0.0559225,0.042508103,0.004359027,0.005877754,0.0031397159,0.006707199,2.9120393,0.0023032653,0.0
2.355369,2.6413884,0.029459018,0.03056084,0.011506874,0.041529983,0.018489875,0.0029777954,0.0032642689,0.005983574,0.011520054,2.9163594,0.003950149,0.0
2.3555703,2.42731,0.031901002,0.015570016,0.010867031,0.037328437,0.010142582,0.0045915204,0.0003454647,0.0056508556,0.013592928,2.9177709,0.004658669,0.0
2.3555703,2.42731,0.05107103,0.072293535,0.014053336,0.0792918,0.04407277,0.0036560313,0.009173881,0.0073077343,0.017609514,2.9092348,0.0060529714,0.0
2.3580925,1.0391458,0.06529602,0.030174255,0.007723758,0.06691953,0.028550742,0.009530281,0.00039862562,0.0040163537,0.019184392,2.912372,0.006587205,0.0
2.3612463,1.9610143,0.05807737,0.053642835,0.010441793,0.06653471,0.04518549,0.006385939,0.0052329605,0.0054297317,0.010674611,2.9105444,0.003667565,0.0
2.3649755,2.8605535,0.033745255,0.023534313,0.010345332,0.040176325,0.017103244,0.004305959,0.0016511149,0.0053795725,0.01153654,2.9166677,0.003955384,0.0
2.3649755,2.8605535,0.057978,0.07346985,0.016429346,0.0838877,0.047560148,0.004821347,0.008849227,0.008543259,0.018163778,2.9083257,0.0062454417,0.0
2.3655257,1.2474853,0.07042727,0.059000492,0.010449368,0.07662321,0.052804552,0.008215724,0.0052447617,0.0054336707,0.011909328,2.908553,0.004094589,0.0
2.3655257,1.2474853,0.020477423,0.026456391,0.016190358,0.039930947,0.007002866,0.0016632921,0.0032178238,0.008418985,0.01646404,2.9178314,0.0056425603,0.0
2.3752933,2.147308,0.05645935,0.057950508,0.0062078484,0.06345739,0.050952468,0.005755461,0.0061431625,0.003228081,0.006252462,2.9102418,0.0021484338,0.0
2.3785937,1.4522713,0.041436434,0.019168202,0.016357228,0.05008937,0.010515265,0.0060463105,0.00025657073,0.008505758,0.019787053,2.9162936,0.006785,0.0
2.385192,2.9302769,0.006948785,0.015755706,0.0053037507,0.018245738,0.0044587525,3.5733752e-05,0.002325533,0.0027579502,0.006893493,2.9205565,0.0023603353,0.0
2.385192,2.9302769,0.071374826,0.085510924,0.014106658,0.09422118,0.06266456,0.006320365,0.009995751,0.0073354617,0.01577831,2.9054644,0.0054305643,0.0
2.386196,2.5616698,0.06179862,0.07947479,0.008912415,0.08318831,0.058085095,0.005048314,0.009644118,0.0046344553,0.012551608,2.9072204,0.004317391,0.0
2.386196,2.5616698,0.059370793,0.058339223,0.003986532,0.06287477,0.05483525,0.006255024,0.0059868162,0.0020729965,0.0040197615,2.9098709,0.0013814226,0.0
2.3878226,2.321006,0.061101884,0.043207068,0.00515367,0.062479995,0.041828953,0.0077503906,0.003097739,0.0026799082,0.010325521,2.9113781,0.0035466095,0.0
2.3878226,2.321006,0.05193492,0.026753401,0.009762179,0.055276122,0.023412202,0.0073653897,0.00081819494,0.0050763325,0.01593196,2.9142597,0.005466898,0.0
2.391662,1.6570574,0.0354718,0.036722664,0.010164702,0.04628116,0.025913306,0.0035914993,0.0039167237,0.005285645,0.010183927,2.9149902,0.00349364,0.0
2.391662,1.6570574,0.050633956,0.06995155,0.0051127807,0.071221285,0.049364217,0.0037591585,0.008781732,0.0026586456,0.010928534,2.9095473,0.0037560943,0.0
2.391662,1.6570574,0.052867945,0.042481463,0.015919449,0.06441981,0.030929597,0.006308411,0.003607926,0.008278113,0.01674511,2.9123857,0.005749619,0.0
2.391662,1.6570574,0.021139044,0.04477129,0.01183594,0.04967971,0.016230628,0.00035514496,0.006499529,0.006154688,0.016724542,2.9156969,0.0057360358,0.0
2.391662,1.6570574,0.014414341,0.018841794,0.009521366,0.026403394,0.0068527423,0.00115375,0.0023048876,0.00495111,0.009775326,2.9193697,0.0033484371,0.0
2.391662,1.6570574,0.07367498,0.058525093,0.011096009,0.079535104,0.052664958,0.008843888,0.004904918,0.0057699243,0.013435073,2.908241,0.004619656,0.0
2.3938046,0.10305839,0.06354249,0.064638466,0.00957938,0.07368552,0.054495435,0.0065229326,0.006807885,0.004981277,0.009595042,2.908693,0.003298747,0.0
2.3938046,0.10305839,0.07358097,0.05212234,0.0076500974,0.07602899,0.049674314,0.009326193,0.0037469494,0.0039780503,0.013177337,2.9089718,0.0045298953,0.0
2.3971093,0.31048176,0.009078709,0.021004891,0.0066589206,0.023980461,0.0061031384,1.3943569e-05,0.0031147504,0.0034626382,0.008938661,2.9197266,0.003061472,0.0
2.397603,2.7160387,0.064495094,0.07336895,0.018124307,0.08759152,0.05027253,0.0060153273,0.008322531,0.009424639,0.018659495,2.907604,0.0064174817,0.0
2.397603,2.7160387,0.043727916,0.059140723,0.016618123,0.069752365,0.033116277,0.0033455032,0.0073528336,0.008641424,0.018318044,2.91154,0.006291531,0.0
2.4014406,0.51818335,0.018389275,0.04132808,0.01667599,0.050098144,0.0096192155,0.00012325795,0.006087346,0.008671514,0.020239465,2.9163935,0.006939895,0.0
2.4054086,3.0,0.04890212,0.035771225,0.011173117,0.05529598,0.029377365,0.0061100293,0.002695997,0.0058100205,0.012959308,2.9135866,0.0044478886,0.0
2.4054086,3.0,0.04870621,0.04660957,0.013162712,0.060862284,0.0344535,0.0052289837,0.0046838564,0.0068446095,0.013204392,2.9123895,0.0045338687,0.0
2.4054086,3.0,0.05686737,0.029860323,0.0025430345,0.05710474,0.029622953,0.008020755,0.0009989238,0.0013223778,0.013740893,2.9133556,0.004716518,0.0
2.406799,0.72616315,0.029205391,0.034260906,0.011522304,0.043529462,0.019936834,0.0026430301,0.003957464,0.0059915977,0.011796314,2.9159718,0.0040454143,0.0
2.406799,0.72616315,0.07046053,0.066533364,0.003397847,0.07242136,0.06457253,0.0076342123,0.0066131507,0.0017668803,0.0039244145,2.9077017,0.001349662,0.0
2.4072263,1.8559468,0.050426822,0.032850437,0.0051375655,0.051818356,0.0314589,0.0066153463,0.002045487,0.0026715337,0.010179728,2.9137435,0.0034936941,0.0
2.4135504,0.9321232,0.040086344,0.04117664,0.0070536947,0.04770622,0.033556763,0.0040839366,0.0043674125,0.0036679208,0.0070747286,2.9139702,0.0024278658,0.0
2.4135504,0.9321232,0.018270364,0.026051147,0.013410986,0.036124624,0.008196885,0.0012932166,0.00331622,0.0069737122,0.01396387,2.9181252,0.0047852197,0.0
2.4170227,2.4819512,0.050004918,0.048176393,0.008035519,0.057178017,0.04100329,0.005343136,0.004867719,0.0041784695,0.008087363,2.9120672,0.0027771897,0.0
2.4170227,2.4819512,0.062848225,0.08153535,0.01132778,0.08687582,0.05750776,0.005078619,0.009937271,0.005890445,0.014684029,2.9068706,0.0050514904,0.0
2.4178197,2.7857618,0.041389197,0.02897368,0.0063866354,0.04408792,0.02627496,0.0052728867,0.0020448517,0.00332105,0.00890648,2.9151962,0.0030551907,0.0
2.4209836,1.1404626,0.074718975,0.054699853,0.007257776,0.077073336,0.052345484,0.009332264,0.0041272924,0.0037740432,0.012363926,2.9085538,0.004250884,0.0
2.4227908,2.0548363,0.02854556,0.055054888,0.0094869025,0.058100145,0.025500301,0.00090101047,0.007793435,0.0049331887,0.016299922,2.9137073,0.005594221,0.0
2.4227908,2.0548363,0.017972773,0.037081517,0.008725344,0.040466145,0.014588148,0.00037868632,0.005346959,0.0045371787,0.012938999,2.916918,0.0044358457,0.0
2.4284298,2.63632,0.0474399,0.0456484,0.010918861,0.05749969,0.035588607,0.0050734854,0.004607696,0.005677807,0.010955542,2.91264,0.0037613786,0.0
2.4312341,1.3470254,0.0151387425,0.026207432,0.009032518,0.03126626,0.010079912,0.00071107125,0.0035889302,0.004696909,0.010593174,2.91846,0.0036297138,0.0
2.4353201,2.2285345,0.042138703,0.045799483,0.0048097926,0.049115397,0.038822792,0.004096884,0.005048686,0.002501092,0.0051463023,2.9132195,0.0017665344,0.0
2.4380362,2.8554852,0.022025235,0.0496859,0.006298374,0.05105253,0.020658609,0.00013309244,0.007324864,0.0032751542,0.01519696,2.9150445,0.005213286,0.0
2.4443023,1.5518115,0.03907964,0.044679638,0.009222796,0.0515181,0.032241177,0.0036274819,0.005083482,0.0047958535,0.009638462,2.9136894,0.0033079924,0.0
2.4443023,1.5518115,0.013690425,0.031415507,0.008084837,0.034549184,0.01055675,4.124768e-05,0.0046497686,0.004204115,0.011996217,2.918037,0.004111057,0.0
2.4478495,2.4022324,0.034675196,0.06190895,0.0073016393,0.06374307,0.032841075,0.0014819871,0.008562762,0.003796852,0.015450997,2.912247,0.0053055244,0.0
2.4478495,2.4022324,0.056715507,0.027432205,0.00854107,0.059024602,0.02512311,0.00818251,0.00056885113,0.004441356,0.016950745,2.9136457,0.0058177095,0.0
2.4478495,2.4022324,0.060860246,0.027466116,0.0062633203,0.06199633,0.026330035,0.008934206,0.0002517339,0.0032569263,0.017833147,2.9131756,0.006121549,0.0
2.4478495,2.4022324,0.06392187,0.07950099,0.01345447,0.08725813,0.056164727,0.005432702,0.009483273,0.006996324,0.015546702,2.9069786,0.005348062,0.0
2.4478495,2.4022324,0.019359471,0.01035373,0.0019735205,0.019772965,0.009940238,0.0027158323,0.00037434007,0.0010262305,0.004916364,2.9197683,0.0016838198,0.0
2.4478495,2.4022324,0.0056083784,0.010014902,0.0064871013,0.014662688,0.0009605931,0.00023956246,0.0013852585,0.0033732923,0.0068510473,2.921353,0.0023451624,0.0
2.45,0.0,0.026768226,0.03375088,0.004355188,0.0358414,0.024677705,0.0022392482,0.0040547377,0.0022646976,0.0055818483,2.9163034,0.0019140149,0.0
2.453206,1.7508794,0.03480969,0.0494041,0.005760266,0.051403664,0.03281013,0.002481843,0.0062763896,0.002995338,0.009296767,2.9136384,0.003190776,0.0
2.453206,1.7508794,0.067115374,0.028771933,0.0053452933,0.067846596,0.02804071,0.009970786,1.4924711e-06,0.0027795522,0.019902943,2.9123254,0.006834038,0.0
2.4542758,0.20611678,0.02997867,0.061609045,0.007729793,0.063396975,0.028190738,0.0006506124,0.008874509,0.004019492,0.017603118,2.912809,0.006043348,0.0
2.4542758,0.20611678,0.05434339,0.053168505,0.010243915,0.06401669,0.0434952,0.005743353,0.0054378826,0.0053268354,0.010260746,2.911018,0.0035247966,0.0
2.4575806,0.41354015,0.044748392,0.04585393,0.015022049,0.06033338,0.030268945,0.0045676,0.0048550405,0.0078114644,0.015032217,2.9129198,0.0051605324,0.0
2.4575806,0.41354015,0.024235385,0.010520691,0.0010229263,0.024311261,0.010444814,0.0035902257,2.4405615e-05,0.0005319216,0.0069332235,2.9192011,0.0023750414,0.0
2.458253,2.9252083,0.056470625,0.02461579,0.007052886,0.05796233,0.023124084,0.008357621,7.536522e-05,0.0036675003,0.017419122,2.91399,0.0059777563,0.0
2.458253,2.9252083,0.034552157,0.064851224,0.011121817,0.06849539,0.03090799,0.0012300961,0.009107854,0.005783344,0.018793702,2.9119298,0.0064540366,0.0
2.4592566,2.5566015,0.050153155,0.056599043,0.0066478015,0.06076397,0.045988232,0.004713148,0.006389079,0.0034568564,0.007387869,2.9111032,0.0025378244,0.0
2.4629388,0.6215199,0.014608965,0.030680895,0.005520434,0.032394387,0.012895471,0.00026572173,0.004444423,0.0028706254,0.009749457,2.9180162,0.003341125,0.0
2.4629388,0.6215199,0.017540183,0.030738205,0.01373647,0.039378535,0.008899852,0.000794733,0.0042262184,0.0071429634,0.015239341,2.91768,0.0052231024,0.0
2.4681041,0.8277617,0.05313762,0.07735555,0.012409657,0.08258517,0.047907993,0.0036373138,0.009933974,0.006453021,0.017338589,2.908433,0.005961488,0.0
2.4681041,0.8277617,0.03098587,0.038928043,0.011377574,0.047007628,0.022906281,0.0026030405,0.0046680053,0.005916338,0.012050673,2.9152467,0.004133672,0.0
2.4687707,1.9497689,0.061928414,0.05750477,0.0024051708,0.06298416,0.056449022,0.006785598,0.005635451,0.0012506887,0.0032675695,2.909677,0.0011230008,0.0
2.470664,2.7109704,0.073562995,0.07285876,0.012662061,0.085877836,0.060543925,0.007705481,0.007522379,0.006584271,0.012666956,2.9066415,0.0043579354,0.0
2.470664,2.7109704,0.012620835,0.011311996,0.015889332,0.027869217,-0.0039363876,0.001414656,0.001074358,0.008262452,0.015902802,2.9204185,0.005445385,0.0
2.4764414,1.0334401,0.04860453,0.04152235,0.012658926,0.058208313,0.031918567,0.0056072804,0.0037659137,0.0065826406,0.013144873,2.9129732,0.004512528,0.0
2.4764414,1.0334401,0.04546337,0.06904058,0.0058427197,0.07040905,0.044094898,0.0028891673,0.009019242,0.003038214,0.013157077,2.9102314,0.0045209727,0.0
2.482443,3.0,0.046555787,0.020117782,0.010152472,0.050004557,0.01666901,0.006903966,3.0084588e-05,0.005279285,0.016667772,2.915611,0.0057167336,0.0
2.4828176,2.1360626,0.05312189,0.06636652,0.010660755,0.07229438,0.047194038,0.004491595,0.007935198,0.0055435924,0.01255017,2.9096708,0.004313261,0.0
2.4838746,1.2417796,0.03150638,0.039201323,0.0013716962,0.039438527,0.031269174,0.0026764572,0.0046771425,0.000713282,0.0040846765,2.9151573,0.0014011856,0.0
2.4838746,1.2417796,0.059043553,0.046480197,0.0036355786,0.06001976,0.04550399,0.00712047,0.0038539986,0.0018905007,0.007257886,2.9112413,0.0024930555,0.0
2.4900835,2.4768827,0.038432546,0.066159,0.014752595,0.072539985,0.032051563,0.0018343208,0.009043199,0.0076713488,0.020244211,2.9113462,0.0069535566,0.0
2.4900835,2.4768827,0.071409576,0.07655061,0.01008151,0.08438415,0.063576035,0.0070255934,0.008362263,0.005242385,0.010404058,2.9064684,0.003579622,0.0
2.4908805,2.7806935,0.06988551,0.061697703,0.003923254,0.07146188,0.06012134,0.0079067405,0.0057779113,0.002040092,0.00567027,2.9083104,0.0019496784,0.0
2.495347,2.3097608,0.050420556,0.06646856,0.011703703,0.07263474,0.044254377,0.0039919927,0.008164474,0.006085925,0.014190182,2.9099631,0.004876413,0.0
2.495347,2.3097608,0.053390272,0.028876029,0.00871286,0.056171466,0.026094835,0.0074646985,0.0010909956,0.004530687,0.015038315,2.9138572,0.005160965,0.0
2.4969428,1.4465656,0.023017514,0.022914644,0.008527846,0.03149408,0.014438078,0.0024018453,0.0023750986,0.0044344794,0.008528002,2.917944,0.0029226064,0.0
2.4969428,1.4465656,0.043376908,0.04759046,0.015565866,0.061191477,0.029775895,0.004182541,0.0052780644,0.008094249,0.01570779,2.9128788,0.005392532,0.0
2.5014908,2.6312518,0.03413298,0.056522783,0.01791879,0.06645627,0.02419949,0.001803425,0.007624773,0.00931777,0.021128392,2.9129138,0.007253353,0.0
2.5072193,1.6510936,0.034143545,0.05919002,0.008669134,0.061897848,0.031435717,0.0015973034,0.008109386,0.0045079496,0.015231065,2.9126124,0.0052293483,0.0
2.5072193,1.6510936,0.057027526,0.049891483,0.006628535,0.060987335,0.04593167,0.006487473,0.0046321023,0.003446838,0.007527832,2.9110844,0.0025859203,0.0
2.5104713,0.10305839,0.043566115,0.019610064,0.009046413,0.046598442,0.016577736,0.006399447,0.00017087477,0.0047041345,0.015010353,2.9160044,0.0051475754,0.0
2.5110972,2.850417,0.07342161,0.084708475,0.0019540663,0.0850372,0.07309288,0.0067554717,0.009690055,0.0010161144,0.005972162,2.9053245,0.0020555921,0.0
2.5110972,2.850417,0.018759444,0.034813188,0.01361525,0.042591557,0.010981074,0.00069879025,0.0048727626,0.007079929,0.01580524,2.9170847,0.0054181633,0.0
2.5147471,0.3091752,0.084883176,0.07064436,0.015481975,0.094804235,0.060723297,0.009938477,0.006236384,0.008050626,0.017040469,2.9056172,0.005864664,0.0
2.5147471,0.3091752,0.03819964,0.047653414,0.009375544,0.053426255,0.0324268,0.0032353678,0.0056933486,0.0048752828,0.010499727,2.9134538,0.0036038763,0.0
2.5147505,1.8447014,0.06745488,0.043117974,0.00996989,0.07101761,0.03955525,0.008913586,0.00258599,0.005184342,0.015731178,2.9106736,0.005404652,0.0
2.5147505,1.8447014,0.03885148,0.06922802,0.010442525,0.072471514,0.03560799,0.0016711833,0.009569083,0.0054301126,0.018431762,2.910954,0.006331863,0.0
2.5190787,0.51687676,0.048546374,0.06448992,0.009363014,0.06881511,0.04422119,0.0038052255,0.007950548,0.0048687668,0.012296962,2.9103963,0.0042251847,0.0
2.5190787,0.51687676,0.024824167,0.02428948,0.013061923,0.037621483,0.011492165,0.0026234186,0.0024843998,0.0067921993,0.013064659,2.917586,0.0044779,0.0
2.524244,0.72311854,0.040313505,0.049881108,0.013222364,0.059158444,0.031036166,0.003446331,0.0059339073,0.0068756286,0.014061139,2.9129655,0.0048270873,0.0
2.5303152,2.0435908,0.03658964,0.06987502,0.010803875,0.073074274,0.03339038,0.0012090631,0.00986326,0.0056180144,0.019841947,2.9111357,0.006815878,0.0
2.5303152,2.0435908,0.03792424,0.065812945,0.0075147743,0.06770895,0.036028244,0.0017688016,0.009019864,0.0039076824,0.015840352,2.9114423,0.005440723,0.0
2.5309954,0.92907864,0.03594097,0.0248203,0.0056593334,0.03831445,0.022446822,0.004605273,0.0017138986,0.0029428531,0.007933814,2.916276,0.0027205292,0.0
2.5323176,2.5515332,0.023629243,0.04997789,0.008444953,0.052452207,0.021154923,0.00040224654,0.0072528943,0.004391375,0.01564864,2.9148312,0.0053686267,0.0
2.5323176,2.5515332,0.047035076,0.04685303,0.0075900936,0.054534692,0.03935341,0.004905847,0.0048585148,0.003946848,0.0075906403,2.9125502,0.0026061835,0.0
2.5352876,2.9252083,0.017845308,0.016860606,0.011805253,0.029168472,0.005537442,0.0019327184,0.001676696,0.006138731,0.011815514,2.9192066,0.004047509,0.0
2.5393324,1.1347569,0.049521558,0.03343072,0.011897319,0.055838414,0.027113862,0.0064053265,0.0022217094,0.0061866054,0.014362276,2.9137802,0.0049290867,0.0
2.5393324,1.1347569,0.025251621,0.042236377,0.009224964,0.046282757,0.021205243,0.0013013574,0.0057173935,0.004796981,0.012538757,2.9155195,0.004300694,0.0
2.5412452,2.3964958,0.03235136,0.05532081,0.011646677,0.06019286,0.027479315,0.0015729237,0.0075449804,0.0060562715,0.016356774,2.9132493,0.005614615,0.0
2.5412452,2.3964958,0.05415859,0.06919989,0.009467428,0.07377024,0.049588237,0.004459271,0.008370009,0.004923062,0.0120910015,2.9092355,0.0041560754,0.0
2.5428443,2.217289,0.043590683,0.070719354,0.007164058,0.072495,0.041815042,0.002417394,0.009470848,0.0037253096,0.015339978,2.910253,0.005271012,0.0
2.5428443,2.217289,0.02451625,0.047953077,0.010078085,0.051690698,0.020778626,0.00072161725,0.0068151914,0.0052406034,0.015456036,2.9149592,0.0053023165,0.0
2.543725,2.705902,0.023045467,0.04215549,0.0142590515,0.04976494,0.015436014,0.00090614683,0.0058747516,0.007414706,0.017164461,2.9157767,0.0058867545,0.0
2.543725,2.705902,0.05184817,0.04422417,0.0055779666,0.05479228,0.041280057,0.005986881,0.004004641,0.0029005422,0.006756112,2.9123044,0.002319851,0.0
2.5495832,1.3413197,0.03293026,0.027995557,0.008034546,0.03886777,0.022058044,0.0038096535,0.0025266306,0.0041779634,0.008404864,2.9162576,0.0028820718,0.0
2.5495832,1.3413197,0.05812987,0.062014874,0.008708153,0.068994544,0.05115019,0.0057424754,0.006752576,0.004528239,0.008922176,2.909597,0.0030664648,0.0
2.5594778,3.0,0.024242321,0.054991413,0.009968062,0.05794005,0.021293687,0.0001227719,0.008117535,0.0051833917,0.018323183,2.9141984,0.006287555,0.0
2.5598598,1.5458478,0.021534173,0.024806717,0.018160785,0.04140479,0.004936097,0.001984295,0.0028351569,0.009443607,0.018234346,2.917898,0.0062491377,0.0
2.5639415,2.7756252,0.039515737,0.062031705,0.0039662747,0.06270995,0.038837492,0.0023533904,0.008207542,0.0020624627,0.011936229,2.9116886,0.004099418,0.0
2.5639415,2.7756252,0.058928262,0.029710388,0.016490357,0.06635005,0.022288596,0.008407533,0.00081088534,0.008574985,0.022030726,2.9131405,0.0075625344,0.0
2.5666666,0.0,0.05892656,0.07340868,0.0057222354,0.075396754,0.056938488,0.004998756,0.008764107,0.0029755621,0.009229133,2.9082258,0.0031734582,0.0
2.5687637,1.7449156,0.028154839,0.019365419,0.007002193,0.032027185,0.015493074,0.0036136773,0.0013284285,0.00364114,0.008267055,2.9177654,0.0028333517,0.0
2.5709426,0.20611678,0.05380032,0.07309185,0.008293146,0.076166816,0.05072535,0.004090493,0.0091062905,0.0043124356,0.012720734,2.908838,0.0043731323,0.0
2.5745518,2.6261835,0.06449713,0.042440157,0.002426605,0.06476094,0.04217635,0.008428144,0.002693332,0.0012618345,0.011292294,2.9110825,0.0038790703,0.0
2.5745518,2.6261835,0.023457367,0.022668015,0.01155227,0.0346217,0.011503682,0.0025011352,0.0022959039,0.0060071796,0.01155901,2.9179223,0.003961384,0.0
2.5752184,0.41223356,0.027101401,0.014843752,0.0065367203,0.029933114,0.012012039,0.003774642,0.0005876533,0.0033990943,0.008960538,2.9183924,0.0030703677,0.0
2.5752184,0.41223356,0.06773833,0.05254642,0.0018794669,0.0679674,0.052317355,0.008229755,0.0042798575,0.0009773227,0.007825023,2.9095812,0.0026893984,0.0
2.5752184,0.41223356,0.06684161,0.029977672,0.013215286,0.07108962,0.025729666,0.0098269135,0.00024229058,0.006871948,0.022679977,2.9122205,0.007787864,0.0
2.5752184,0.41223356,0.03653534,0.049661055,0.013608598,0.05820664,0.027989753,0.002775869,0.0061885547,0.00707647,0.015108444,2.9134152,0.0051858188,0.0
2.5752184,0.41223356,0.05169362,0.04848885,0.0029317762,0.053432334,0.04675014,0.005626107,0.004792868,0.0015245235,0.0033410974,2.911842,0.0011474171,0.0
2.5752184,0.41223356,0.028097602,0.024995157,0.011538527,0.03818871,0.014904047,0.0031641407,0.0023575053,0.0060000336,0.011642331,2.9171386,0.0039910106,0.0
2.576295,1.9385234,0.029222146,0.047311485,0.0023707205,0.047617022,0.028916609,0.0016281345,0.006331362,0.0012327746,0.009350207,2.9145021,0.003208166,0.0
2.576295,1.9385234,0.04159235,0.06315962,0.015236154,0.071042195,0.03370978,0.0026433563,0.0082508465,0.007922799,0.018666208,2.9113283,0.0064115776,0.0
2.5803838,0.6184754,0.025861623,0.020284642,0.009840929,0.033301502,0.012844763,0.0031246126,0.001674598,0.0051172827,0.010228369,2.9179199,0.0035053634,0.0
2.5834794,2.471146,0.020932032,0.017037757,0.006623125,0.025888309,0.012081481,0.0024806845,0.0014681729,0.0034440248,0.006903414,2.9188397,0.0023651228,0.0
2.585549,0.82471716,0.06843535,0.049864445,0.011969126,0.074298486,0.044001315,0.008565806,0.0037373714,0.006223945,0.015148586,2.9098043,0.0052060494,0.0
2.585549,0.82471716,0.030996304,0.051193085,0.008395433,0.05422713,0.027962262,0.0016482663,0.006899429,0.004365625,0.013132433,2.913866,0.004506876,0.0
2.588132,2.850417,0.05757456,0.05100796,0.009385825,0.064234786,0.04434773,0.006499948,0.0047926325,0.0048806285,0.009943528,2.9108973,0.0034159666,0.0
2.5887427,2.304024,0.057120573,0.06902333,0.0085345935,0.07347667,0.05266723,0.005012123,0.008106842,0.004437988,0.010404721,2.9089222,0.0035768303,0.0
2.5903418,2.1248171,0.0766423,0.05133148,0.00343273,0.07709959,0.050874185,0.0099450415,0.0033642293,0.0017850194,0.013112703,2.9087164,0.004508072,0.0
2.5903418,2.1248171,0.030859621,0.023063734,0.011899687,0.039483517,0.014439835,0.0038174791,0.001790549,0.0061878366,0.012521841,2.917045,0.0042926455,0.0
2.5938864,1.0303955,0.055902306,0.032725494,0.01306888,0.06178063,0.026847167,0.00762163,0.0015956598,0.006795817,0.017466731,2.9131417,0.00599584,0.0
2.6022236,1.2360739,0.04526616,0.06760946,0.012368797,0.07310493,0.03977069,0.0029649022,0.00877416,0.006431774,0.016667122,2.9104145,0.005726718,0.0
2.6022236,1.2360739,0.041463733,0.069496684,0.008549718,0.07189847,0.03906195,0.0021256576,0.009414224,0.004445853,0.01641826,2.91063,0.005640792,0.0
2.6022236,1.2360739,0.05337498,0.07616138,0.007580343,0.07845272,0.051083643,0.0037736585,0.009698121,0.003941778,0.013684539,2.9085405,0.0047049504,0.0
2.6022236,1.2360739,0.01505906,0.0223256,0.015781876,0.03488703,0.0024976302,0.0009993521,0.002888652,0.008206574,0.016194701,2.9189055,0.0055482103,0.0
2.6022236,1.2360739,0.07525088,0.07380191,0.008732467,0.08328887,0.06576393,0.00793911,0.0075623784,0.0045408825,0.008762471,2.9063454,0.003014945,0.0
2.6022236,1.2360739,0.051817093,0.0744785,0.0011573405,0.074537456,0.05175814,0.0036213873,0.009513352,0.000601817,0.011389658,2.908905,0.003915445,0.0
2.612322,2.9252083,0.04519927,0.028629314,0.0029824225,0.045719728,0.028108858,0.00599318,0.0016849919,0.0015508595,0.008805435,2.9148064,0.0030209331,0.0
2.6125002,1.4406018,0.07640928,0.066244364,0.013780785,0.08601496,0.056638684,0.008739428,0.006096549,0.0071660075,0.01468814,2.9070652,0.0050525665,0.0
2.6167858,2.7008338,0.037886333,0.049297564,0.009510613,0.054682747,0.032501146,0.003050102,0.006017022,0.0049455184,0.0110908,2.913304,0.0038069491,0.0
2.6167858,2.7008338,0.012198432,0.012754788,0.01709354,0.029572412,-0.0046191923,0.0012252412,0.0013698933,0.0088886395,0.017095802,2.9203036,0.005854118,0.0
2.6167858,2.7008338,0.068012476,0.05153853,0.0079829255,0.07124611,0.048304893,0.008358263,0.004075039,0.004151121,0.011470608,2.9096637,0.0039422456,0.0
2.6167858,2.7008338,0.07500776,0.059508752,0.013514122,0.08283664,0.05167986,0.009009729,0.004979986,0.007027343,0.015578391,2.9079804,0.005357117,0.0
2.6167858,2.7008338,0.060363553,0.049201116,0.0046776547,0.062064536,0.047500134,0.0071484786,0.0042462456,0.0024323803,0.007282201,2.9107869,0.002501798,0.0
2.6167858,2.7008338,0.06622143,0.04914739,0.013467732,0.07362996,0.04173886,0.0082188025,0.0037795529,0.00700322,0.01594555,2.910134,0.005479318,0.0
2.6227767,1.6451299,0.0543377,0.044300463,0.009319189,0.059903685,0.038734477,0.0064340243,0.0038243432,0.0048459778,0.010584604,2.912016,0.003634803,0.0
2.6227767,1.6451299,0.08103112,0.081055686,0.0065163574,0.087559775,0.07452704,0.008425319,0.008431707,0.0033885054,0.006516367,2.9048793,0.0022432487,0.0
2.6257133,2.5457964,0.044526428,0.054313447,0.012994527,0.06330533,0.035534546,0.0038673605,0.006411985,0.006757153,0.013885394,2.9119933,0.004768347,0.0
2.627138,0.10305839,0.023627043,0.024338663,0.0031074733,0.02711063,0.020855075,0.0024017058,0.0025867268,0.0016158859,0.003127778,2.9177153,0.0010719956,0.0
2.6303082,1.8387377,0.0684925,0.07926745,0.009638755,0.08492219,0.06283776,0.006282773,0.00908426,0.005012152,0.011042215,2.9064908,0.003799157,0.0
2.631414,0.3091752,0.040473286,0.067815065,0.0066807577,0.069360144,0.038928203,0.0020765625,0.009185424,0.0034739936,0.015215971,2.9109304,0.0052271844,0.0
2.631414,0.3091752,0.06197227,0.039150722,0.0077070445,0.06433118,0.03679181,0.008225196,0.0022915937,0.0040076626,0.013769686,2.9117365,0.004729029,0.0
2.634641,2.390759,0.057337098,0.059888802,0.008610487,0.06731745,0.04990845,0.0057640243,0.0064274673,0.004477453,0.008704498,2.9099252,0.0029913133,0.0
2.634641,2.390759,0.070990734,0.08521312,0.010497131,0.090780996,0.065422855,0.0062736897,0.009971509,0.0054585077,0.01267907,2.9055412,0.004363755,0.0
2.6362402,2.2115521,0.07311025,0.07152185,0.012498299,0.08483956,0.059792545,0.00772736,0.0073143765,0.0064991144,0.012523508,2.9068427,0.004308285,0.0
2.6365125,3.0,0.07266107,0.04580693,0.011704996,0.07704672,0.041421276,0.009651373,0.0026692972,0.006086597,0.017812723,2.9097855,0.006121662,0.0
2.6365237,0.51383215,0.046095192,0.026441256,0.009216317,0.04974078,0.022795666,0.0063269064,0.0012168831,0.0047924845,0.013472557,2.9149516,0.00462188,0.0
2.6365237,0.51383215,0.03717017,0.048785117,0.009096999,0.053770334,0.03218496,0.002959732,0.0059796167,0.004730439,0.010792688,2.9134424,0.0037044452,0.0
2.6378393,2.0323455,0.06652543,0.082791455,0.0074060652,0.085658245,0.06365863,0.0056498945,0.009879059,0.0038511537,0.010999806,2.9063158,0.003784794,0.0
2.6378393,2.0323455,0.065686256,0.045522515,0.0067633446,0.06774469,0.04346408,0.008404141,0.0031615691,0.0035169388,0.012140304,2.910602,0.0041710627,0.0
2.6378393,2.0323455,0.010069407,0.014303398,0.0033569213,0.016155105,0.008217701,0.00071696675,0.0018178046,0.0017455989,0.003968702,2.920369,0.0013589729,0.0
2.6378393,2.0323455,0.0356433,0.033154465,0.014520146,0.048972256,0.01982551,0.0039010316,0.003253935,0.007550475,0.014573373,2.9153721,0.0049988036,0.0
2.6378393,2.0323455,0.044861905,0.03202152,0.0049381955,0.046541378,0.03034204,0.0056671873,0.0023286873,0.0025678615,0.008099669,2.9144628,0.0027791292,0.0
2.6378393,2.0323455,0.07119321,0.08131571,0.009683445,0.087180816,0.0653281,0.006614538,0.0092463875,0.005035391,0.010926358,2.9059567,0.0037599865,0.0
2.6409762,2.7756252,0.04347617,0.06435034,0.0073551307,0.0666816,0.041144907,0.0028933366,0.008320618,0.0038246675,0.012768347,2.9109824,0.004386267,0.0
2.6409762,2.7756252,0.052674904,0.030979296,0.007904095,0.05524908,0.02840512,0.007170447,0.0015295888,0.0041101286,0.01342198,2.9137013,0.004606505,0.0
2.641689,0.72007394,0.06154793,0.038359925,0.009736175,0.06509375,0.034814116,0.008209649,0.0021807672,0.00506281,0.015139816,2.911873,0.0051993392,0.0
2.6484401,0.92603403,0.021751162,0.04352819,0.0053490833,0.044771142,0.02050821,0.000563512,0.00622554,0.0027815232,0.0121314665,2.915768,0.004160642,0.0
2.6567774,1.1317123,0.06877976,0.07486553,0.011160935,0.08339094,0.060254343,0.0066784043,0.008260704,0.0058036856,0.0115683,2.9069536,0.003979527,0.0
2.6567774,1.1317123,0.07487837,0.058610734,0.01092315,0.080363445,0.053125657,0.009056225,0.0048266393,0.0056800377,0.013618894,2.908096,0.0046830964,0.0
2.6651406,1.335356,0.043689888,0.04271017,0.0114698475,0.054680333,0.03171973,0.0046201656,0.004365439,0.00596432,0.011480302,2.9133923,0.0039405273,0.0
2.6651406,1.335356,0.0682345,0.041958798,0.010898186,0.072166316,0.03802698,0.009145892,0.0023142092,0.005667056,0.017069668,2.9107163,0.005864422,0.0
2.6651664,2.850417,0.04715442,0.023034256,0.013647546,0.053306997,0.016881673,0.0067854314,0.00051418983,0.007096723,0.018212661,2.9152157,0.0062474487,0.0
2.6651664,2.850417,0.011860412,0.020458825,0.0059141945,0.023471313,0.008847924,0.0005628065,0.0027983936,0.0030753808,0.0073116943,2.919475,0.0025044552,0.0
2.6679475,2.6204467,0.0627989,0.04965661,0.0056978883,0.06492522,0.047530293,0.0075561837,0.004139188,0.0029629017,0.008697465,2.9104617,0.0029883455,0.0
2.6679475,2.6204467,0.04371207,0.06440682,0.013314635,0.07092206,0.037196834,0.002931864,0.008312499,0.0069236094,0.016862614,2.9109495,0.0057928227,0.0
2.6754172,1.539884,0.04273851,0.035584785,0.01164637,0.05134491,0.026978381,0.005002795,0.0031428265,0.0060561122,0.012183264,2.9143007,0.00418051,0.0
2.676875,2.4654093,0.015985254,0.00865545,0.00793286,0.021058876,0.0035818303,0.002234191,0.00032844202,0.004125087,0.008738523,2.9203389,0.0029922978,0.0
2.6821384,2.2982872,0.045904882,0.031036148,0.012104281,0.052675564,0.024265464,0.0059338682,0.0020679978,0.006294226,0.01420505,2.9144564,0.004873996,0.0
2.6833334,0.0,0.08164583,0.0870999,0.009669013,0.094419084,0.07432664,0.008065748,0.009483806,0.0050278865,0.010046221,2.9041305,0.003459287,0.0
2.6837378,2.1190805,0.060903274,0.055208664,0.012812432,0.07118096,0.04493097,0.006778119,0.0052975207,0.006662464,0.013124997,2.9100504,0.00451023,0.0
2.6837378,2.1190805,0.04397053,0.05801754,0.017196335,0.06956938,0.032418687,0.0034772675,0.0071294904,0.008942094,0.018575346,2.911639,0.006379687,0.0
2.6843212,1.7389519,0.03256874,0.016343856,0.012079852,0.039007403,0.009905199,0.0046526897,0.00043421972,0.006281522,0.014551102,2.9176087,0.0049873386,0.0
2.6876092,0.20611678,0.07381443,0.07273427,0.015866231,0.089149766,0.057398923,0.007760953,0.007480109,0.00825044,0.015875421,2.9066272,0.005461802,0.0
2.6876092,0.20611678,0.06058364,0.07883852,0.018338492,0.09019548,0.049226686,0.004876817,0.009623085,0.009536015,0.020484395,2.9074287,0.0070455363,0.0
2.6893568,2.9252083,0.063062906,0.08166137,0.0021669639,0.08191051,0.06281377,0.005107861,0.009943462,0.0011268212,0.0095483735,2.9068322,0.0032848038,0.0
2.6893568,2.9252083,0.039623573,0.035678536,0.0055729607,0.0435628,0.03173931,0.004428564,0.003402854,0.0028979392,0.005911745,2.9146407,0.002028293,0.0
2.6918526,1.9325597,0.05809384,0.049611837,0.016053751,0.070457324,0.03724835,0.0067033544,0.0044980342,0.00834795,0.016604487,2.910996,0.005704057,0.0
2.6918526,1.9325597,0.06706096,0.043903846,0.0072406777,0.06913855,0.041826252,0.008780594,0.0027597444,0.003765152,0.013656149,2.9106295,0.0046918197,0.0
2.6919544,0.41090384,0.07969065,0.07144961,0.006884165,0.08359325,0.06754701,0.008930628,0.006787956,0.0035797656,0.00802312,2.9061108,0.0027607759,0.0
2.6919544,0.41090384,0.079420954,0.07107047,0.010903943,0.08692169,0.063569725,0.008911115,0.006739991,0.00567005,0.011675984,2.9061837,0.0040176343,0.0
2.6978288,0.6154308,0.026255142,0.01719506,0.008161329,0.03105937,0.012390833,0.0034372206,0.0010815999,0.0042438908,0.009334268,2.9182231,0.0031986136,0.0
2.6978288,0.6154308,0.056261774,0.06813116,0.00611706,0.070719324,0.053673618,0.0049254107,0.008011453,0.0031808708,0.008522853,2.9091191,0.0029297024,0.0
2.702994,0.82167256,0.06710663,0.057323854,0.004499655,0.068861485,0.055568993,0.007742144,0.005198624,0.0023398204,0.0066462457,2.9091148,0.002284628,0.0
2.702994,0.82167256,0.08289813,0.07436372,0.011224387,0.090639085,0.066622764,0.009287088,0.0070681428,0.005836681,0.01200816,2.9054222,0.0041330173,0.0
2.709572,2.7012007,0.025158584,0.054083005,0.0055730855,0.05511966,0.024121929,0.00036038778,0.007880736,0.0028980041,0.015498865,2.9141974,0.005318399,0.0
2.709572,2.7012007,0.024907466,0.021498345,0.004152085,0.02769126,0.01871455,0.0028562879,0.0019699158,0.002159084,0.0044883545,2.9178908,0.0015382188,0.0
2.7113314,1.0273509,0.01784612,0.023088211,0.008602884,0.029460467,0.011473863,0.0014471131,0.0028100568,0.004473499,0.008993302,2.9185061,0.0030814742,0.0
2.7113314,1.0273509,0.07350069,0.056127563,0.008325237,0.076846,0.052782252,0.008999174,0.0044821617,0.0043291226,0.012031876,2.9085302,0.0041367547,0.0
2.713547,3.0,0.08064548,0.087266326,0.009491102,0.09400776,0.07390404,0.007870703,0.009592122,0.0049353726,0.010051861,2.9042244,0.0034611174,0.0
2.713547,3.0,0.031263135,0.035642948,0.008048993,0.04179462,0.02511146,0.0029097404,0.0040484914,0.004185476,0.008341581,2.915585,0.0028610316,0.0
2.713547,3.0,0.039945513,0.040721305,0.010338841,0.050679523,0.029987294,0.0040938207,0.004295527,0.005376197,0.010346115,2.9140372,0.00355044,0.0
2.7186384,1.2314979,0.072115846,0.04880981,0.008555552,0.07491933,0.046006333,0.009317918,0.003258349,0.0044488865,0.0144564975,2.9095092,0.0049687065,0.0
2.7186384,1.2314979,0.009375814,0.00934785,0.015991265,0.025353104,-0.006629438,0.0009772658,0.0009699951,0.008315457,0.01599127,2.9210043,0.0054745795,0.0
2.719109,2.5400596,0.04468753,0.020016879,0.008558911,0.047366034,0.017338369,0.0065718126,0.00015744475,0.0044506337,0.015013833,2.9158325,0.0051490725,0.0
2.719109,2.5400596,0.039534744,0.019236185,0.004659459,0.040553205,0.018217724,0.0056949,0.00041727547,0.0024229186,0.01116774,2.9164999,0.0038291586,0.0
2.7280366,2.3850224,0.01653925,0.025018033,0.004089977,0.026669342,0.01488794,0.0010587367,0.0032632202,0.002126788,0.005890701,2.918436,0.0020184445,0.0
2.7280366,2.3850224,0.0740862,0.0855897,0.0109297205,0.092188716,0.06748718,0.0068076896,0.009798601,0.005683454,0.012350768,2.9051507,0.004251335,0.0
2.7280576,1.4346381,0.032596443,0.067718275,0.014067778,0.07265821,0.027656512,0.00065052696,0.009782203,0.007315244,0.02250085,2.9118273,0.0077273985,0.0
2.7280576,1.4346381,0.05373025,0.07411488,0.013011939,0.080451146,0.047393993,0.0039979443,0.009297947,0.0067662075,0.016528577,2.9087307,0.005682402,0.0
2.729636,2.2058156,0.055854056,0.04697067,0.017166529,0.069144204,0.033680517,0.006501725,0.004192045,0.008926595,0.017731844,2.911545,0.0060901833,0.0
2.729636,2.2058156,0.016176375,0.016381027,0.014283732,0.0305628,0.0019946024,0.0016663796,0.0017195897,0.0074275397,0.0142840985,2.9194484,0.004892739,0.0
2.7337625,2.7759922,0.06486404,0.037288617,0.014922549,0.0713934,0.030759256,0.008896742,0.001727133,0.0077597247,0.020317072,2.9116206,0.0069779255,0.0
2.7383342,1.6391661,0.060710546,0.041275598,0.0059761675,0.06240113,0.03958501,0.007829822,0.0027767362,0.003107607,0.011408061,2.9116392,0.0039180885,0.0
2.7383342,1.6391661,0.01987577,0.010481621,0.009207939,0.025515458,0.004841933,0.0027998234,0.00035734486,0.0047881277,0.010336762,2.9196959,0.003540356,0.0
2.7438047,0.10305839,0.008663819,0.016023256,0.010666109,0.023626544,0.0010605315,0.00032700095,0.0022404545,0.005546376,0.0112830065,2.9203336,0.003863602,0.0
2.7438047,0.10305839,0.03354468,0.030505095,0.0062351897,0.038442623,0.025607148,0.0037257334,0.002935442,0.0032422983,0.0064177373,2.9159062,0.0022009409,0.0
2.7458656,1.8327739,0.08681352,0.08574662,0.0012875082,0.087673716,0.084886424,0.009111822,0.00883443,0.00066950417,0.001393646,2.9037015,0.00047995496,0.0
2.7458656,1.8327739,0.06730916,0.05442326,0.007408882,0.07068472,0.051047705,0.008005252,0.0046549183,0.0038526184,0.009818509,2.9094183,0.0033747328,0.0
2.7481496,0.30784547,0.01539077,0.03198285,0.00993354,0.03662897,0.01074465,0.00030645754,0.0046203984,0.00516544,0.01294216,2.9177818,0.004435616,0.0
2.7532594,0.51250243,0.03601545,0.037863635,0.009180236,0.04616617,0.027712915,0.003601448,0.0040819757,0.004773722,0.009226628,2.9148006,0.0031654404,0.0
2.7545023,2.0354674,0.008528742,0.0073710945,0.009135031,0.01710327,-0.0012034327,0.0009772854,0.00067629723,0.004750216,0.009153351,2.9213219,0.003133291,0.0
2.7545023,2.0354674,0.023452925,0.047613494,0.004938733,0.048584044,0.022482371,0.0005545794,0.006836327,0.0025681409,0.0130508365,2.915117,0.004476951,0.0
2.7579527,2.8507838,0.048266035,0.05065943,0.014465629,0.06397778,0.034947686,0.0048329826,0.0054552644,0.0075221267,0.014515046,2.9119835,0.0049845907,0.0
2.759134,0.71702933,0.03925274,0.036332306,0.007217655,0.045156404,0.030428639,0.0043100785,0.0035507653,0.0037531801,0.007363883,2.9146087,0.0025265424,0.0
2.759134,0.71702933,0.047981586,0.03325672,0.011052902,0.05389967,0.027338639,0.0061386237,0.002310159,0.0057475083,0.013280515,2.9139729,0.0045575285,0.0
2.7607338,2.6208136,0.03505316,0.053288504,0.006726497,0.055501223,0.032840446,0.002223171,0.006964361,0.003497778,0.0113303885,2.913174,0.003889362,0.0
2.765885,0.9229894,0.0329006,0.033380974,0.008899276,0.042043302,0.02423827,0.0033841925,0.0035090903,0.004627623,0.008902516,2.9156551,0.0030533501,0.0
2.765885,0.9229894,0.026326418,0.02581666,0.008782064,0.0348573,0.01728578,0.002777708,0.0026451712,0.0045666727,0.00878576,2.9172454,0.003011663,0.0
2.7702708,2.4596727,0.05999733,0.06040099,0.013625555,0.07382621,0.04657211,0.006208236,0.0063131875,0.007085288,0.013627049,2.9095683,0.0046835295,0.0
2.7702708,2.4596727,0.012432571,0.00815604,0.011582908,0.022072928,-0.0014843177,0.0016265565,0.00051465863,0.0060231118,0.011778623,2.9207945,0.0040326775,0.0
2.7731922,1.1271365,0.054588728,0.06463699,0.018731348,0.07900629,0.040219426,0.004893462,0.0075060106,0.0097403005,0.019393433,2.9097002,0.0066650966,0.0
2.7755342,2.2925506,0.07376419,0.060045492,0.008066449,0.07749344,0.05631625,0.008741533,0.0051746718,0.004194553,0.010588594,2.9080598,0.0036411197,0.0
2.7755342,2.2925506,0.049626376,0.057038885,0.01425586,0.068062395,0.03860287,0.004582967,0.0065102186,0.0074130464,0.014729762,2.911113,0.0050598388,0.0
2.7815554,1.33078,0.06397131,0.03539495,0.0032026528,0.06432585,0.035040416,0.008881971,0.0014521189,0.0016653793,0.014642715,2.911934,0.0050285193,0.0
2.782143,2.9255755,0.056081522,0.065666944,0.013764294,0.075449064,0.046299394,0.005084815,0.007577024,0.007157432,0.014574835,2.9094164,0.005009539,0.0
2.782143,2.9255755,0.07191183,0.0821937,0.009215637,0.08760536,0.06650017,0.0066768425,0.00935013,0.004792131,0.010552593,2.9057772,0.0036315904,0.0
2.7851603,3.0,0.045459323,0.05780676,0.0074033965,0.061272807,0.041993275,0.003764669,0.006975002,0.0038497658,0.009639766,2.9114954,0.003310933,0.0
2.7909746,1.5339203,0.045271207,0.06954357,0.009069794,0.07255823,0.04225654,0.0028149607,0.009125775,0.0047162925,0.015150845,2.9101963,0.005206125,0.0
2.7909746,1.5339203,0.08334807,0.07183963,0.0039887736,0.084595375,0.07059232,0.009565857,0.006573662,0.002074162,0.0070015267,2.9056554,0.0024096204,0.0
2.7998786,1.7329882,0.06550143,0.054306734,0.0044778786,0.06707218,0.05273598,0.0076853335,0.0047747134,0.0023284967,0.007168101,2.9096348,0.002463574,0.0
2.7998786,1.7329882,0.041979395,0.067939214,0.014338497,0.07430021,0.035618402,0.0023409901,0.009090544,0.0074560177,0.019340903,2.910747,0.0066446527,0.0
2.8,0.0,0.054922365,0.033554398,0.012944434,0.061022475,0.027454285,0.007378626,0.0018229554,0.006731105,0.016784094,2.913159,0.005761476,0.0
2.8,0.0,0.072939344,0.07673513,0.008749427,0.08379014,0.06588434,0.007289619,0.008276524,0.0045497017,0.008952901,2.9062755,0.003080541,0.0
2.8,0.0,0.061105095,0.06012616,0.009441429,0.07006974,0.05116152,0.006431286,0.0061767623,0.0049095424,0.009454109,2.9094746,0.0032494213,0.0
2.8004005,2.1222024,0.031424765,0.04903797,0.014613348,0.057293206,0.023169534,0.0018943448,0.0064737783,0.0075989403,0.017061837,2.91406,0.0058550052,0.0
2.8023586,2.7015676,0.036062125,0.063549995,0.011075127,0.06745695,0.032155164,0.001606407,0.008753252,0.0057590655,0.017650895,2.9119062,0.006061629,0.0
2.8023586,2.7015676,0.03018882,0.060028005,0.015063596,0.06630997,0.023906851,0.0008121801,0.008570368,0.007833069,0.021201562,2.9129632,0.007278349,0.0
2.8043451,0.20478706,0.059157122,0.0739423,0.012448341,0.08102768,0.052071743,0.0049990956,0.008843242,0.0064731366,0.014477968,2.9081397,0.0049784295,0.0
2.8085153,1.9356816,0.03563215,0.059244994,0.017878786,0.06886385,0.02601329,0.0018639412,0.0080032805,0.009296968,0.021425277,2.9124389,0.007356473,0.0
2.8086903,0.40957412,0.05487396,0.028408848,0.014444043,0.06123045,0.022052353,0.007771169,0.00089024147,0.0075109014,0.019589048,2.913743,0.006722984,0.0
2.8086903,0.40957412,0.07146486,0.03907895,0.0046332865,0.072114676,0.03842913,0.009958446,0.001538109,0.0024093087,0.016842773,2.9106767,0.005786549,0.0
2.8118956,2.5404267,0.059857182,0.05916127,0.004980341,0.0645017,0.054516744,0.006279427,0.0060984897,0.002589777,0.0049924795,2.9097235,0.0017157916,0.0
2.8145647,0.61410105,0.016850132,0.022921074,0.013865213,0.0340792,0.005692006,0.00127888,0.002857325,0.00720991,0.014193598,2.918637,0.0048630913,0.0
2.820439,0.81862795,0.06039924,0.043882467,0.00924915,0.06454036,0.03974135,0.007569828,0.003275468,0.0048095575,0.012399504,2.911381,0.004258977,0.0
2.820439,0.81862795,0.05468479,0.051333714,0.0095884465,0.06274299,0.043275513,0.0059486013,0.0050773215,0.004985992,0.00973374,2.9111857,0.0033435656,0.0
2.820439,0.81862795,0.076137535,0.087510206,0.009722093,0.093086794,0.07056095,0.007031234,0.009988128,0.005055488,0.0112629235,2.9047039,0.0038774775,0.0
2.820439,0.81862795,0.046193246,0.0500477,0.009378358,0.057694804,0.03854614,0.00450345,0.005505607,0.0048767454,0.009574331,2.9122856,0.0032875661,0.0
2.820439,0.81862795,0.03133943,0.047563136,0.0096423635,0.05205197,0.026850594,0.0019938513,0.0062120142,0.0050140284,0.012600687,2.9142356,0.0043238397,0.0
2.820439,0.81862795,0.088081524,0.08519675,0.007186184,0.093968645,0.07930963,0.00938549,0.008635448,0.0037368154,0.0073295087,2.9036207,0.002524265,0.0
2.8214326,2.3792856,0.05357526,0.041767124,0.008034915,0.057642043,0.03770034,0.0064928606,0.0034227457,0.004178155,0.009970851,2.9123867,0.0034236014,0.0
2.8214326,2.3792856,0.035819028,0.06338819,0.006921017,0.06502811,0.034179114,0.0015747839,0.0087427655,0.0035989285,0.015424497,2.9119518,0.005296962,0.0
2.8214326,2.3792856,0.022383666,0.028600018,0.007480146,0.033592045,0.017391635,0.0018430254,0.0034592769,0.0038896755,0.008100205,2.9173758,0.002776538,0.0
2.8214326,2.3792856,0.02346899,0.018960595,0.010537649,0.031990852,0.010438734,0.0027924296,0.0016202466,0.0054795765,0.01077606,2.918338,0.0036925331,0.0
2.8214326,2.3792856,0.026118249,0.04761707,0.008944959,0.050852012,0.022883307,0.0010393895,0.0066290824,0.0046513784,0.013984352,2.9148169,0.004797678,0.0
2.8214326,2.3792856,0.0616294,0.07195315,0.011822851,0.07969184,0.0538907,0.0056042043,0.008288379,0.006147882,0.01290057,2.9080856,0.004436104,0.0
2.8265488,2.7763593,0.03789303,0.03388789,0.010764044,0.0468392,0.02494172,0.004253275,0.0032119392,0.005597302,0.01094874,2.9150367,0.0037559527,0.0
2.8277462,1.0227749,0.09464356,0.09456488,0.0103467675,0.10495107,0.08425738,0.009849068,0.009828608,0.0053803185,0.010346845,2.901829,0.0035656288,0.0
2.8350532,1.226922,0.054378722,0.03465219,0.007208138,0.056731887,0.03229902,0.0071940557,0.0020651578,0.0037482313,0.012216434,2.9130964,0.004193625,0.0
2.8350532,1.226922,0.008179506,0.008651496,0.0070481873,0.015467638,0.0013633645,0.00081385334,0.0009365706,0.003665057,0.0070521366,2.9212172,0.002414109,0.0
2.8444724,1.4300622,0.07553165,0.08353193,0.014799799,0.09486265,0.06420093,0.0072312686,0.009311342,0.0076958947,0.0153308585,2.9052196,0.005277005,0.0
2.846299,2.2089374,0.016644867,0.016844478,0.017213233,0.033958197,-0.00046884827,0.0017154963,0.001767395,0.00895088,0.017213523,2.9193435,0.005896368,0.0
2.8507392,2.8511508,0.004298098,0.009893224,0.005384529,0.013163569,0.0010277526,1.0582354e-05,0.0014653149,0.0027999547,0.0060679084,2.921514,0.002076974,0.0
2.8507392,2.8511508,0.022450013,0.012904982,0.009648931,0.028442197,0.0069127968,0.0030793133,0.0005976056,0.0050174436,0.010764699,2.9191337,0.003687635,0.0
2.8535202,2.6211805,0.06547806,0.048657972,0.0075930944,0.06839868,0.045737352,0.008121683,0.0037484616,0.0039484086,0.011330662,2.9102728,0.0038933333,0.0
2.8537564,2.9255755,0.07672535,0.07085008,0.010245318,0.08444587,0.06312957,0.008437706,0.006910137,0.0053275647,0.010658152,2.9065115,0.0036669911,0.0
2.8538918,1.6332024,0.02033791,0.031607125,0.0054823305,0.033834115,0.018110918,0.0012361434,0.0041661393,0.0028508115,0.007861598,2.9172678,0.0026948499,0.0
2.8538918,1.6332024,0.036132384,0.030715777,0.0054635075,0.039522015,0.027326144,0.004180263,0.002771945,0.0028410237,0.006097935,2.9155915,0.0020914916,0.0
2.8538918,1.6332024,0.02507641,0.031277314,0.001163831,0.031488556,0.024865171,0.0021242758,0.0037365109,0.00060519204,0.0033116927,2.916772,0.0011353965,0.0
2.8538918,1.6332024,0.0907109,0.087413564,0.008146129,0.097373515,0.08075094,0.009691125,0.008833817,0.0042359866,0.008311287,2.9030757,0.0028629245,0.0
2.8538918,1.6332024,0.08357205,0.07866044,0.0009898198,0.08376402,0.07846847,0.009074598,0.0077975797,0.00051470625,0.0026477724,2.904863,0.00091149646,0.0
2.8538918,1.6332024,0.055285696,0.048370905,0.013262836,0.065534376,0.03812223,0.006289065,0.00449122,0.006896674,0.013706073,2.9114513,0.004707643,0.0
2.8567736,3.0,0.02447496,0.025093772,0.0069702053,0.031761434,0.017807297,0.002497128,0.0026580193,0.0036245065,0.0069770683,2.917535,0.0023914257,0.0
2.8605406,0.10172867,0.06660193,0.031551164,0.012381317,0.070534326,0.027618775,0.00966056,0.00054736075,0.006438284,0.021457776,2.9120705,0.0073685637,0.0
2.8605406,0.10172867,0.072205886,0.0702795,0.0065027955,0.077816434,0.064668946,0.00765967,0.0071588084,0.0033814532,0.006573744,2.9070842,0.0022612843,0.0
2.8625286,1.8358958,0.07115935,0.039468843,0.007811087,0.072980024,0.037648164,0.009872431,0.0016328996,0.004061765,0.01766593,2.9106672,0.0060693747,0.0
2.8630571,2.4600396,0.030898426,0.05798118,0.011630326,0.062290102,0.026589496,0.001100981,0.008142496,0.0060477685,0.017850302,2.9131134,0.006127569,0.0
2.8630571,2.4600396,0.029792586,0.013663301,0.010586926,0.035036642,0.0084192455,0.004356513,0.0001628989,0.005505201,0.013308698,2.9182224,0.0045605497,0.0
2.8648856,0.30651575,0.018385375,0.0200418,0.00628394,0.02555187,0.012875304,0.0017828776,0.002213548,0.0032676484,0.0063382834,2.9187882,0.0021715462,0.0
2.8699954,0.5111727,0.0093591465,0.006640767,0.015563336,0.023622531,-0.0076226173,0.0011853846,0.00047860618,0.008092934,0.015622575,2.9213107,0.0053477963,0.0
2.8711653,2.0385892,0.053540822,0.027527915,0.017265486,0.06215068,0.01891806,0.0075972513,0.000833896,0.008978052,0.02161631,2.913992,0.007418109,0.0
2.8711653,2.0385892,0.05279409,0.050085265,0.0083607165,0.059909392,0.04296997,0.005701873,0.0049975784,0.004347572,0.008469712,2.9115388,0.0029090156,0.0
2.8758698,0.7156996,0.038996276,0.067999825,0.011403933,0.07194666,0.035049446,0.0017933358,0.009334257,0.0059300447,0.018448606,2.9110758,0.006337384,0.0
2.8758698,0.7156996,0.030114166,0.043518078,0.017881457,0.055912264,0.017719977,0.002086368,0.0055713844,0.009298356,0.019096144,2.9148285,0.006551378,0.0
2.8823001,0.9184135,0.008093916,0.004753102,0.010259222,0.016817829,-0.003970811,0.0011023507,0.00023373905,0.005334795,0.01039432,2.9216652,0.0035576697,0.0
2.8823001,0.9184135,0.045789197,0.022758402,0.002939176,0.046158373,0.022389224,0.006558478,0.0005704715,0.0015283714,0.011884575,2.9154003,0.0040764813,0.0
2.8896072,1.1225605,0.055195484,0.064471886,0.0074898987,0.06864342,0.051023945,0.00501677,0.007428634,0.003894747,0.008809738,2.9096506,0.0030277648,0.0
2.8921971,2.2956724,0.063641876,0.061497644,0.004698696,0.06738922,0.0577503,0.006786004,0.0062285042,0.0024433217,0.00481946,2.9090352,0.0016567211,0.0
2.8921971,2.2956724,0.03982897,0.07003522,0.009634016,0.07284629,0.037017893,0.0017861254,0.009639748,0.005009688,0.0179142,2.9107533,0.0061544892,0.0
2.895145,2.7019346,0.045407224,0.06232894,0.0135699455,0.069859624,0.03787654,0.0034024569,0.0078021022,0.007056371,0.015991542,2.9109926,0.0054935017,0.0
2.895145,2.7019346,0.051909328,0.0531601,0.011825489,0.06437673,0.040692702,0.005301009,0.00562621,0.006149254,0.011842012,2.9112926,0.0040676133,0.0
2.8979702,1.3262042,0.070940755,0.041559655,0.005494739,0.07193474,0.040565677,0.009669564,0.0020304779,0.002857264,0.01568453,2.9104567,0.0053890273,0.0
2.8995001,2.38275,0.04623116,0.031435583,0.012319493,0.05320338,0.024463363,0.0059620957,0.0021152447,0.006406136,0.014370009,2.9143746,0.004930735,0.0
2.8995001,2.38275,0.049264047,0.064057864,0.012603255,0.07127452,0.042047393,0.003969543,0.007815934,0.006553692,0.014613563,2.9103644,0.0050212145,0.0
2.904682,2.5407937,0.07286506,0.05237437,0.008120816,0.07569315,0.04954628,0.009176238,0.0038486603,0.0042228242,0.013073437,2.9090238,0.0044940975,0.0
2.904682,2.5407937,0.01468534,0.018837057,0.018654948,0.03553129,-0.0020088926,0.0012034413,0.0022828875,0.009700572,0.018770091,2.91934,0.006429567,0.0
2.9073896,1.5293443,0.07531842,0.07425313,0.013975725,0.08877164,0.060799897,0.0079162065,0.0076392316,0.007267376,0.013985872,2.9062872,0.0048122816,0.0
2.9073896,1.5293443,0.0257207,0.05600746,0.01108037,0.059628315,0.022099843,0.0003125854,0.008187142,0.005761792,0.018764235,2.9139178,0.006439521,0.0
2.9165416,1.7361101,0.058300298,0.05098372,0.018221838,0.07322744,0.03605657,0.006633923,0.004731613,0.009475355,0.018585436,2.9108186,0.0063849515,0.0
2.9165416,1.7361101,0.035391662,0.049268093,0.00963535,0.054203328,0.030456427,0.002598371,0.0062062424,0.0050103813,0.01187345,2.913588,0.004075199,0.0
2.9166667,0.0,0.051285565,0.054423254,0.0074868305,0.060503848,0.045204975,0.005088958,0.0059047574,0.0038931514,0.0076494366,2.9112206,0.0026275702,0.0
2.9170635,2.1253242,0.043138012,0.042310107,0.006796508,0.049533162,0.035914954,0.0045509287,0.0043356745,0.0035341838,0.0068091042,2.9134994,0.0023370879,0.0
2.9193351,2.7767262,0.037336003,0.06322541,0.010170903,0.066743165,0.033818245,0.0018635707,0.008594815,0.005288869,0.01646246,2.9117994,0.005653707,0.0
2.9193351,2.7767262,0.069502726,0.053994626,0.008921113,0.07356864,0.04992871,0.008437914,0.0044058086,0.0046389783,0.011819966,2.9092197,0.0040629334,0.0
2.921081,0.20345734,0.016005272,0.020909421,0.004575953,0.023648879,0.013265813,0.0012820243,0.002557103,0.0023794952,0.005191533,2.9189582,0.0017785567,0.0
2.921081,0.20345734,0.0540396,0.0606551,0.012671402,0.07044336,0.044251334,0.0051041087,0.006824138,0.006589128,0.013096014,2.91021,0.004500024,0.0
2.9223523,2.8511508,0.047531858,0.023077015,0.009923211,0.051051814,0.019557055,0.0068507898,0.0004925316,0.0051600696,0.01574738,2.9151685,0.0054018763,0.0
2.9251783,1.9388034,0.035598975,0.03990061,0.015490869,0.05338926,0.022110319,0.0033667658,0.00448519,0.008055251,0.015639469,2.9146185,0.005365872,0.0
2.9253695,2.9255755,0.077578224,0.059884515,0.010025312,0.082102,0.05536074,0.009448243,0.0048478795,0.005213162,0.013370631,2.907649,0.0045984336,0.0
2.9254262,0.4082444,0.07604839,0.068224005,0.0053607537,0.07877268,0.06549971,0.008519334,0.006484993,0.0027875917,0.0066364855,2.9068832,0.0022830244,0.0
2.9254262,0.4082444,0.041168835,0.039885413,0.0135347145,0.054077044,0.026977206,0.004381665,0.0040479754,0.007038051,0.013549919,2.9139936,0.0046499483,0.0
2.9283867,3.0,0.07571842,0.08440547,0.0016567349,0.0847107,0.07541318,0.0071971244,0.009455757,0.000861502,0.00464876,2.9051003,0.0016002064,0.0
2.9313006,0.61277133,0.077965155,0.07944541,0.012746043,0.0914728,0.065937765,0.007992915,0.008377781,0.0066279415,0.012767516,2.9054055,0.004394401,0.0
2.9313006,0.61277133,0.058021177,0.06991945,0.005082883,0.07179514,0.05614548,0.0051061353,0.008199688,0.0026430988,0.007824831,2.90872,0.0026901285,0.0
2.9364448,0.8158866,0.014883781,0.020051586,0.012067949,0.029809156,0.00512621,0.0011448242,0.0024884534,0.006275333,0.012341473,2.9191809,0.004227718,0.0
2.9364448,0.8158866,0.06947795,0.07877298,0.01596937,0.09075737,0.057493567,0.006500694,0.008917401,0.008304072,0.016631901,2.9064357,0.005722439,0.0
2.941125,2.463504,0.089841716,0.08587993,0.01498409,0.10297528,0.072746366,0.009652558,0.008622491,0.007791726,0.015114456,2.9033458,0.0052058753,0.0
2.944161,1.0181991,0.05613136,0.05669673,0.011975709,0.06839309,0.044435002,0.0057935617,0.0059405584,0.0062273685,0.0119790435,2.91042,0.004115916,0.0
2.944161,1.0181991,0.039400503,0.044769023,0.0120868385,0.054466076,0.029703448,0.0036789074,0.005074722,0.006285155,0.012381314,2.9136431,0.004249427,0.0
2.9463065,2.6215477,0.08888968,0.0819318,0.016419355,0.102194615,0.06862687,0.00978724,0.007978191,0.008538064,0.01678387,2.903897,0.005779775,0.0
2.9463065,2.6215477,0.0345275,0.06098696,0.012188444,0.06574567,0.029768793,0.0015270213,0.008406481,0.00633799,0.017988436,2.912367,0.006176569,0.0
2.951468,1.2223461,0.0312121,0.039404348,0.0052622794,0.04197679,0.028639654,0.0026070627,0.0047370465,0.002736385,0.0066685686,2.9151676,0.0022875422,0.0
2.951468,1.2223461,0.019565245,0.035367362,0.0074935327,0.038355738,0.016576871,0.00080221996,0.0049107703,0.0038966367,0.010889433,2.9169316,0.003733181,0.0
2.9608874,1.4254863,0.07730866,0.08431015,0.009138444,0.09059544,0.071023375,0.007493984,0.00931437,0.0047519905,0.009786032,2.904932,0.0033687647,0.0
2.9608874,1.4254863,0.05150127,0.062667966,0.007912145,0.06676841,0.04740083,0.004485129,0.00738847,0.004114315,0.00968379,2.910269,0.0033274551,0.0
2.9629617,2.2120593,0.08135948,0.08953304,0.012603501,0.09869579,0.07219673,0.007823848,0.009948972,0.00655382,0.013249531,2.903889,0.0045626853,0.0
2.9629617,2.2120593,0.085048586,0.07995323,0.0020527414,0.08577266,0.079229146,0.009242489,0.007917698,0.0010674254,0.0032717586,2.9045515,0.0011264246,0.0
2.9702299,1.6276287,0.025309378,0.020564022,0.012190709,0.03535616,0.0105172405,0.0030023127,0.0017685201,0.006339168,0.01241946,2.9179506,0.004256227,0.0
2.9702299,1.6276287,0.030381272,0.039837983,0.012061475,0.0480648,0.022154454,0.0024220285,0.004880773,0.0062719663,0.012955174,2.9152124,0.0044439896,0.0
2.970265,2.2991369,0.07465065,0.08137072,0.009275966,0.087876454,0.06814492,0.0072395024,0.008986718,0.004823502,0.009865768,2.9055617,0.003395477,0.0
2.9772072,0.10172867,0.011731545,0.011128833,0.004529374,0.015969578,0.006890801,0.0012670922,0.0011103868,0.0023552743,0.0045393887,2.920539,0.0015542983,0.0
2.977568,2.3862145,0.015267844,0.021261187,0.004383545,0.02357446,0.012954571,0.0011203749,0.002678644,0.0022794432,0.0053099445,2.9190016,0.0018190962,0.0
2.977568,2.3862145,0.02969254,0.020587238,0.009163351,0.035371877,0.014907898,0.0037982373,0.0014308587,0.004764942,0.010231989,2.917455,0.0035071627,0.0
2.9791913,1.8390177,0.018355917,0.03362961,0.013920627,0.041870587,0.010114942,0.0007176672,0.004688827,0.007238725,0.015877822,2.917263,0.005442712,0.0
2.9791913,1.8390177,0.047961522,0.06978566,0.01603968,0.0782732,0.039473988,0.003285715,0.008959991,0.0083406335,0.019399606,2.9098666,0.006666837,0.0
2.9816215,0.30518603,0.004169694,0.0054484154,0.010637484,0.015465735,-0.0058476264,0.00033390787,0.0006663754,0.005531491,0.010656681,2.9220285,0.0036470147,0.0
2.9816215,0.30518603,0.055629384,0.033087194,0.01621256,0.06410379,0.024612792,0.007543746,0.001682777,0.00843053,0.019745499,2.9131317,0.0067781005,0.0
2.9827495,2.544258,0.054203182,0.025228309,0.009900576,0.05726303,0.02216846,0.00789717,0.0003637036,0.005148299,0.017547287,2.9141762,0.0060213543,0.0
2.9867313,0.509843,0.09010741,0.08231412,0.007374778,0.0945517,0.07786983,0.009979046,0.007952791,0.0038348841,0.008340932,2.903717,0.0028725017,0.0
2.9867313,0.509843,0.02420907,0.054283213,0.00959498,0.057083663,0.021408621,0.0001719596,0.007991237,0.004989389,0.01783752,2.9142818,0.006120726,0.0
2.987828,2.041711,0.045138076,0.0708842,0.01222071,0.07576111,0.040261168,0.0026861613,0.009380153,0.0063547683,0.01774997,2.9100606,0.0060995193,0.0
2.987828,2.041711,0.05888492,0.0753371,0.005849672,0.07720493,0.057017088,0.0048407614,0.009118326,0.0030418292,0.01009392,2.9080136,0.0034710704,0.0
2.9879313,2.7023017,0.05869412,0.0625097,0.015425807,0.07614525,0.04505858,0.0058065723,0.0067986236,0.008021419,0.015543334,2.9094777,0.0053423108,0.0
2.9879313,2.7023017,0.04530791,0.05555447,0.0008933585,0.05563177,0.045230605,0.00391279,0.0065768957,0.00046454638,0.0052005835,2.9117658,0.0017860583,0.0
2.9879313,2.7023017,0.02873535,0.033803537,0.009506219,0.04110763,0.021431264,0.0025931576,0.0039108857,0.0049432334,0.0098381825,2.9160762,0.0033737742,0.0
2.9879313,2.7023017,0.07534554,0.08199142,0.011458876,0.09059943,0.06673752,0.007317556,0.009045485,0.005958615,0.011930957,2.9054136,0.0041064573,0.0
2.9879313,2.7023017,0.0843502,0.08838252,0.01266936,0.09919514,0.07353757,0.008457898,0.009506302,0.006588067,0.012828782,2.903682,0.0044181086,0.0
2.9879313,2.7023017,0.021287058,0.011716899,0.009286451,0.026948756,0.0060552005,0.002960326,0.0004720852,0.004828954,0.010446778,2.919398,0.0035784012,0.0
2.9879313,2.7023017,0.056101415,0.04312224,0.0034299968,0.056952104,0.042271554,0.0068469215,0.003472337,0.0017835982,0.0073402748,2.91195,0.002520742,0.0
2.9909484,2.7767262,0.03735847,0.027629586,0.01349623,0.046840142,0.018147912,0.004644133,0.0021146236,0.007018039,0.014346115,2.9158006,0.004920129,0.0
2.9909484,2.7767262,0.044095326,0.048436373,0.008449591,0.054989766,0.03754193,0.0042473115,0.0053759837,0.0043937867,0.008723918,2.9127028,0.0029951283,0.0
2.9918756,0.71295834,0.06261088,0.06910308,0.008480594,0.0749376,0.05677636,0.006005139,0.00769311,0.0044099083,0.009080619,2.9082956,0.0031223162,0.0
2.9939656,2.8511508,0.04363621,0.05566707,0.011205726,0.06236988,0.036933396,0.003599758,0.0067277816,0.005826977,0.012718242,2.911941,0.0043676165,0.0
2.9939656,2.8511508,0.045762192,0.028530829,0.017423771,0.056584045,0.017708974,0.006103314,0.0016231593,0.0090603605,0.019437537,2.9147542,0.006668671,0.0
2.9969828,2.9255755,0.058279417,0.07030904,0.016380543,0.081744164,0.046844304,0.0051227477,0.00825045,0.008517882,0.01744993,2.9086473,0.0059993286,0.0
2.9969828,2.9255755,0.024076255,0.018564623,0.008106078,0.02988216,0.012758722,0.0029338375,0.0015008133,0.0042151604,0.008561719,2.9183142,0.0029337893,0.0
2.9983058,0.9156722,0.068367966,0.06611876,0.006491427,0.07383149,0.060655244,0.007285705,0.006700913,0.0033755417,0.0065881237,2.9079838,0.0022655297,0.0
3.0,3.0,0.063987225,0.07505854,0.0050101522,0.07698915,0.06205662,0.0057911077,0.00866965,0.002605279,0.007466266,2.907471,0.002567959,0.0
3.0,3.0,0.07421593,0.05576707,0.00613143,0.07606781,0.053915195,0.009157468,0.0043607634,0.0031883435,0.011076309,2.9084904,0.0038082672,0.0
3.006022,1.1179847,0.068264075,0.06605997,0.01698489,0.08418263,0.050141416,0.0072713825,0.006698316,0.008832142,0.017020606,2.9080021,0.005853024,0.0
3.006022,1.1179847,0.06314945,0.05127232,0.009977198,0.0688217,0.04560007,0.007493959,0.004405904,0.0051881424,0.011610813,2.9102407,0.00398964,0.0
3.014385,1.3216282,0.052698947,0.023175778,0.012195507,0.05708507,0.018789653,0.007783497,0.00010747338,0.006341663,0.019147709,2.9145763,0.0065696375,0.0
3.014385,1.3216282,0.08853846,0.08304963,0.009385998,0.095573045,0.07601505,0.009636127,0.008209032,0.004880719,0.009778999,2.9038107,0.0033676433,0.0
3.0191927,2.4669685,0.06999671,0.057517547,0.012730994,0.07793495,0.049579307,0.008253031,0.0050084493,0.0066201165,0.014177822,2.908768,0.0048741675,0.0
3.0237277,1.5237706,0.051875133,0.064597,0.00321881,0.06536504,0.051107097,0.0044027073,0.007710393,0.0016737811,0.0071289707,2.91001,0.0024498096,0.0
3.0243742,2.6250122,0.03199202,0.033055402,0.017446876,0.049978685,0.015068736,0.0032442254,0.003520705,0.009072375,0.017454974,2.915794,0.005986354,0.0
3.0243742,2.6250122,0.06280489,0.033798967,0.009695757,0.06574737,0.03085648,0.00879417,0.0012526299,0.0050417935,0.017445445,2.9122448,0.005990377,0.0
3.0328798,1.7305362,0.073394276,0.053883445,0.014536237,0.08114515,0.046132565,0.009154849,0.0040820325,0.0075588427,0.017506294,2.9087946,0.0060184016,0.0
3.0333333,0.0,0.08868115,0.09211548,0.011769144,0.10229207,0.078504555,0.008954961,0.009847885,0.0061199544,0.011893757,2.902775,0.0040973746,0.0
3.0337265,2.128446,0.002755003,0.0045726253,0.0120282015,0.0157263,-0.008398673,0.00014474573,0.0006173275,0.006254664,0.012062486,2.922286,0.0041277567,0.0
3.0337265,2.128446,0.029437006,0.020596204,0.01018421,0.036118772,0.013914441,0.0037510304,0.0014524227,0.0052957884,0.011102166,2.9174829,0.003805392,0.0
3.0377476,0.20345734,0.017202249,0.033006877,0.01626417,0.04318687,0.007022258,0.0005562725,0.004665476,0.008457368,0.018082306,2.917463,0.0061979555,0.0
3.0410295,2.2155237,0.0469128,0.020941444,0.012332268,0.051835574,0.016018668,0.0069046966,0.00015214406,0.006412779,0.017908454,2.9154782,0.006142544,0.0
3.0418413,1.9419254,0.06329697,0.03655439,0.008866848,0.06596976,0.033881605,0.0086688055,0.0017157346,0.0046107606,0.016044077,2.9118793,0.00550987,0.0
3.0418413,1.9419254,0.04839569,0.06041787,0.004582541,0.061965406,0.046848148,0.004095421,0.007221187,0.002382921,0.007558629,2.9108713,0.0025966896,0.0
3.042162,0.40691468,0.02175188,0.043138828,0.0076515633,0.04559438,0.019296333,0.0005940135,0.006154619,0.0039788126,0.013149023,2.9158115,0.0045095584,0.0
3.042162,0.40691468,0.025905084,0.01648064,0.0027615835,0.026654672,0.015731052,0.003429235,0.0009788795,0.0014360233,0.00546181,2.9183428,0.0018715451,0.0
3.042162,0.40691468,0.07097488,0.061600246,0.0098988,0.07724006,0.055335067,0.008112608,0.0056752027,0.0051473756,0.010952495,2.9081988,0.003766075,0.0
3.042162,0.40691468,0.05813874,0.05707052,0.0043704254,0.06200757,0.05320169,0.006129749,0.005852012,0.002272621,0.004402939,2.910152,0.0015129586,0.0
3.042162,0.40691468,0.07208838,0.07131571,0.011032147,0.082740955,0.060663138,0.0075574587,0.0073565654,0.005736716,0.011038909,2.9069808,0.0037973793,0.0
3.042162,0.40691468,0.075909756,0.06093136,0.0063856235,0.07826252,0.058578596,0.009062929,0.005168545,0.003320524,0.009841964,2.907719,0.0033847713,0.0
3.0473063,0.61003,0.03791146,0.024903467,0.008762023,0.042319614,0.020495314,0.004957414,0.0015753371,0.0045562517,0.01091215,2.9160452,0.003742106,0.0
3.0483325,2.3026013,0.082779214,0.066174515,0.00632639,0.084914885,0.06403885,0.009904203,0.0055869827,0.0032897224,0.010438018,2.9063566,0.0035914443,0.0
3.0524504,0.81314534,0.058470987,0.06849806,0.015331527,0.07961497,0.047354072,0.0052988697,0.007905909,0.007972393,0.016130447,2.9088295,0.0055453395,0.0
3.0524504,0.81314534,0.057945468,0.032319088,0.008546947,0.060534492,0.029730067,0.008025185,0.0013623275,0.004444412,0.015402213,2.9129577,0.0052874824,0.0
3.0534484,2.7454762,0.020192314,0.020509925,0.007914644,0.028267356,0.012434883,0.0020752267,0.0021578055,0.004115614,0.007916236,2.9185321,0.0027124034,0.0
3.0534484,2.7454762,0.06438584,0.06073976,0.006436666,0.069252655,0.055872947,0.00698052,0.00603254,0.003347066,0.006689854,2.9090366,0.0022996801,0.0
3.0556357,2.389679,0.062443838,0.07904607,0.0029719966,0.07956205,0.06192785,0.005199184,0.009515764,0.0015454381,0.008817101,2.907196,0.0030328538,0.0
3.0556357,2.389679,0.035248414,0.025259133,0.006440319,0.038403876,0.022103673,0.004444998,0.0018477857,0.0033489657,0.008150102,2.9163046,0.0027946674,0.0
3.0564656,2.8199008,0.021096157,0.00979893,0.01156808,0.028321056,0.0025740322,0.0030751836,0.00013790489,0.006015401,0.012873512,2.9196353,0.0044092876,0.0
3.0594828,2.8943255,0.04417091,0.06322662,0.0071542487,0.0656136,0.04178393,0.0031074288,0.008061912,0.003720209,0.011914834,2.9110308,0.004092995,0.0
3.0601666,1.0154577,0.04095697,0.069414295,0.009064585,0.07205636,0.0383149,0.0020398533,0.009438757,0.0047135837,0.01687073,2.9106963,0.005796115,0.0
3.0608172,2.5477226,0.023549657,0.012575631,0.013414331,0.0325558,0.0035694875,0.003305138,0.00045189145,0.0069754515,0.014493156,2.919047,0.00496503,0.0
3.0608172,2.5477226,0.048165277,0.034533616,0.010634252,0.053980477,0.02871842,0.006072458,0.0025282262,0.00552981,0.012631029,2.9138086,0.004334886,0.0
3.0625,2.96875,0.027949143,0.05257594,0.008721685,0.05535186,0.025173225,0.0009858207,0.007388787,0.004535276,0.015089318,2.9140532,0.0051781205,0.0
3.0678828,1.2177702,0.047212724,0.065976195,0.0038186933,0.0667236,0.046465326,0.0034465718,0.008325074,0.0019857204,0.010129137,2.9103792,0.0034803497,0.0
3.0678828,1.2177702,0.056953993,0.055512544,0.012615867,0.0688697,0.04359683,0.0060356474,0.0056608706,0.00656025,0.012636436,2.9104605,0.004341731,0.0
3.0678828,1.2177702,0.026702357,0.03123703,0.0077387826,0.037033785,0.020905603,0.0024233405,0.003602355,0.0040241666,0.008064091,2.9165936,0.0027649007,0.0
3.0678828,1.2177702,0.056533,0.05652114,0.012832748,0.06935982,0.04369432,0.0058803568,0.005877272,0.006673028,0.012832748,2.9103944,0.0044092815,0.0
3.0678828,1.2177702,0.06845575,0.040126514,0.014338796,0.07444646,0.034135796,0.009329078,0.0019634762,0.007456173,0.020155333,2.9108975,0.0069240956,0.0
3.0678828,1.2177702,0.092912935,0.09139916,0.010393106,0.10257668,0.081735425,0.009781018,0.009387437,0.0054044146,0.010420628,2.9023798,0.0035903738,0.0
3.0772254,1.4199125,0.044325262,0.050214287,0.010937842,0.058597025,0.03594253,0.004150483,0.005681629,0.0056876773,0.011327248,2.9124768,0.003889215,0.0
3.085962,2.66868,0.06332323,0.054016825,0.0056874137,0.066018425,0.05132163,0.0073115146,0.004891849,0.0029574549,0.0073483977,2.9099123,0.0025252986,0.0
3.085962,2.66868,0.029055469,0.03820705,0.011136705,0.04567136,0.021591155,0.0023079452,0.004687356,0.0057910862,0.012040102,2.9155447,0.0041296235,0.0
3.086568,1.6220548,0.06186488,0.027418066,0.010913857,0.06503162,0.024251327,0.009120798,0.00016462716,0.005675205,0.020390145,2.913068,0.006999543,0.0
3.086568,1.6220548,0.047772758,0.025963787,0.007173256,0.049920607,0.023815941,0.006669466,0.0009991337,0.0037300927,0.013052333,2.9148166,0.004477926,0.0
3.0938737,0.10172867,0.04333664,0.06623371,0.010797157,0.070521995,0.039048355,0.0027210386,0.008674276,0.005614521,0.01573682,2.9107862,0.0054063816,0.0
3.0955296,1.8334439,0.034557864,0.06272852,0.0151165165,0.06930488,0.0279815,0.0013967069,0.008721075,0.007860588,0.020661693,2.912168,0.0070949523,0.0
3.0972602,2.470433,0.045438096,0.064037025,0.013562096,0.07118172,0.0382934,0.0032748447,0.008110566,0.0070522893,0.016444162,2.9107969,0.005649368,0.0
3.0972602,2.470433,0.078940526,0.07018542,0.011036295,0.08643575,0.0626902,0.008892712,0.0066163843,0.005738873,0.011872776,2.9063373,0.0040851333,0.0
3.0982883,0.30518603,0.015000519,0.022060558,0.016430499,0.035335965,0.001725113,0.0010093708,0.0028449807,0.008543858,0.016805425,2.9189417,0.005757369,0.0
3.0982883,0.30518603,0.032659546,0.029546412,0.005541006,0.036858466,0.02534749,0.003639417,0.0028300018,0.002881323,0.005755488,2.9161136,0.0019736844,0.0
3.102737,0.5071017,0.021130668,0.023638818,0.012394035,0.034842063,0.009927425,0.0020019535,0.0026540724,0.0064448975,0.012457319,2.9180748,0.0042690197,0.0
3.102737,0.5071017,0.07578016,0.08304937,0.006414725,0.086787626,0.072041914,0.0073141376,0.009204132,0.0033356566,0.007372856,2.9052458,0.0025377737,0.0
3.104491,2.044833,0.07068124,0.07478699,0.009512316,0.08246543,0.0630028,0.007030599,0.008098095,0.004946404,0.009731315,2.9067485,0.0033478353,0.0
3.104491,2.044833,0.050158557,0.06942789,0.014854068,0.07749832,0.042088136,0.0037134814,0.008723508,0.0077241147,0.01770509,2.9096596,0.0060849353,0.0
3.104491,2.044833,0.04372194,0.028205685,0.011095846,0.04950288,0.022424743,0.005757349,0.001723123,0.0057698395,0.013539068,2.9150202,0.004644588,0.0
3.104491,2.044833,0.03816603,0.06708927,0.012537253,0.071767166,0.033488132,0.0017132543,0.009233295,0.006519371,0.019139517,2.9112716,0.006574281,0.0
3.104491,2.044833,0.044077463,0.021160934,0.006744686,0.045915164,0.019323237,0.0063715447,0.00041324765,0.0035072365,0.013295963,2.9157724,0.0045600142,0.0
3.104491,2.044833,0.01896108,0.03597518,0.0046332194,0.037155062,0.017781198,0.00064485206,0.005068518,0.002409274,0.009686932,2.9169312,0.0033209326,0.0
3.104491,2.044833,0.032209754,0.05329489,0.005304215,0.054554034,0.03095061,0.0017051734,0.0071873083,0.0027581914,0.011801712,2.9134932,0.004050709,0.0
3.1078813,0.710217,0.07722971,0.05740551,0.007695614,0.079866394,0.054768812,0.009578175,0.004423885,0.004001719,0.012548791,2.907967,0.004315314,0.0
3.111794,2.1319106,0.043284204,0.056012426,0.0061318334,0.058485806,0.040810823,0.0035087552,0.006818093,0.003188553,0.008837491,2.9119418,0.0030349134,0.0
3.111794,2.1319106,0.030816576,0.058501154,0.015939932,0.065770246,0.023547485,0.0010455264,0.008243516,0.008288764,0.02111138,2.9130642,0.007247139,0.0
3.1143115,0.9129309,0.01963551,0.024918813,0.01485239,0.037362643,0.0071916785,0.001629995,0.0030036538,0.007723242,0.015085482,2.918099,0.005169627,0.0
3.1189656,2.7886508,0.029120535,0.0655711,0.004869423,0.06621039,0.028481243,0.0001853909,0.009662538,0.0025320996,0.018864572,2.9124599,0.006477196,0.0
3.1189656,2.7886508,0.017133795,0.028273808,0.0065711816,0.031318057,0.014089544,0.0009129934,0.0038093966,0.0034170141,0.008614257,2.918003,0.002952107,0.0
3.1190972,2.2189882,0.004742492,0.003708888,0.0076950956,0.01193812,-0.0034867404,0.00057384017,0.00030510323,0.0040014493,0.0077124303,2.9221597,0.002639291,0.0
3.1190972,2.2189882,0.084212005,0.07540808,0.012122312,0.09270685,0.066913225,0.009444755,0.007155732,0.0063036014,0.012896813,2.9051569,0.004439283,0.0
3.1219828,2.8630755,0.03783537,0.049482178,0.005449736,0.051634464,0.035683084,0.0030264268,0.006054597,0.0028338626,0.00797569,2.913289,0.0027376926,0.0
3.1220276,1.1152433,0.030879833,0.01605064,0.0075093494,0.03401827,0.012912201,0.004368179,0.00051258935,0.0039048614,0.010553035,2.9178317,0.0036167388,0.0
3.1220276,1.1152433,0.007211874,0.010766466,0.011926767,0.021047635,-0.0030692946,0.0004727766,0.0013969705,0.0062019182,0.012058465,2.9210882,0.004128073,0.0
3.122405,2.5913906,0.04617452,0.05087408,0.005472874,0.05448029,0.042568307,0.0044355835,0.0056574694,0.002845894,0.0059559904,2.9121947,0.0020451895,0.0
3.125,2.9375,0.07011881,0.0723986,0.0026728145,0.07416444,0.068352975,0.007114531,0.0077072773,0.0013898634,0.0029057339,2.9070804,0.0009995368,0.0
3.1264002,2.306066,0.06880475,0.08282484,0.0026243255,0.08329997,0.068329625,0.0060621263,0.009707349,0.0013646492,0.0074851736,2.9060557,0.0025757158,0.0
3.1264002,2.306066,0.042095456,0.0464699,0.013563975,0.05802187,0.030543488,0.00403672,0.0051740757,0.0070532663,0.013739191,2.9131489,0.0047162683,0.0
3.1307232,1.3160545,0.062745176,0.030839713,0.0118169105,0.06664513,0.026939759,0.009014124,0.0007187035,0.006144793,0.019852687,2.9125843,0.0068161758,0.0
3.1307232,1.3160545,0.04286204,0.026447129,0.010383423,0.04789006,0.021419108,0.005738015,0.0014701376,0.00539938,0.013235476,2.9153147,0.004539982,0.0
3.1337032,2.3931437,0.03335289,0.06766648,0.0076240185,0.06928417,0.031735197,0.0007922403,0.009713773,0.0039644893,0.018774487,2.911748,0.006447841,0.0
3.1337032,2.3931437,0.0848044,0.084902585,0.01804251,0.10289607,0.06681091,0.008811999,0.008837525,0.0093821045,0.01804258,2.9040225,0.0062129614,0.0
3.1337032,2.3931437,0.03928147,0.025659973,0.012788695,0.046959925,0.017981518,0.005147749,0.0016061601,0.006650121,0.014489204,2.9158058,0.0049691936,0.0
3.1337032,2.3931437,0.09113545,0.09142515,0.010719913,0.10200119,0.0805594,0.00945549,0.009530811,0.0055743544,0.010720894,2.9025767,0.003693578,0.0
3.1337032,2.3931437,0.041204426,0.069857314,0.012373864,0.07446125,0.036600485,0.0020503341,0.009500085,0.0064344085,0.018930383,2.9106185,0.006503904,0.0
3.140066,1.5181968,0.06091741,0.038902238,0.0074968687,0.063227855,0.03659179,0.008052593,0.0023286487,0.0038983715,0.013318032,2.9118829,0.004573684,0.0
3.1492178,1.7249625,0.022453638,0.05140831,0.011180961,0.055223245,0.018638704,7.671376e-05,0.0076049278,0.0058140988,0.01829227,2.9148026,0.0062756464,0.0
3.15,0.0,0.07609723,0.07713419,0.0044752937,0.08112093,0.07211048,0.0078332275,0.008102838,0.0023271525,0.0045052245,2.9058754,0.0015503846,0.0
3.1514792,2.7118547,0.021614678,0.02070821,0.010552534,0.031723708,0.010599182,0.0023186307,0.0020829493,0.005487317,0.010562263,2.91835,0.0036192588,0.0
3.1544144,0.20345734,0.038171995,0.04683901,0.009512836,0.05295889,0.032052115,0.0032938598,0.0055472837,0.004946674,0.010453388,2.9135487,0.0035878543,0.0
3.1544144,0.20345734,0.035892755,0.021250702,0.0057632746,0.037889063,0.019254392,0.004874926,0.0010679928,0.0029969024,0.009317336,2.916683,0.0031944972,0.0
3.1581793,1.9363515,0.06342993,0.0792901,0.011726044,0.085515805,0.057204224,0.0053596175,0.009483263,0.006097542,0.01415579,2.9070578,0.004869456,0.0
3.1581793,1.9363515,0.040377486,0.04699238,0.007845332,0.052198946,0.03517092,0.003683296,0.0054031685,0.0040795724,0.008514013,2.9132833,0.0029224802,0.0
3.1581817,0.40585253,0.057294004,0.025969436,0.014295242,0.06283693,0.020426508,0.008401891,0.00025750528,0.007433525,0.021205211,2.9137452,0.007277648,0.0
3.1581817,0.40585253,0.023620458,0.03536669,0.01189809,0.04276226,0.016224887,0.0015403213,0.0045943414,0.0061870064,0.013268687,2.9164755,0.004549562,0.0
3.158848,2.514101,0.06866499,0.04193692,0.016312132,0.07638846,0.034213446,0.009225948,0.0022766495,0.008482308,0.021087509,2.9106703,0.007244898,0.0
3.163312,0.6072887,0.06436137,0.041183725,0.008135256,0.066931754,0.038613338,0.0085014375,0.0024752505,0.004230333,0.014159208,2.911239,0.0048636366,0.0
3.163312,0.6072887,0.0391142,0.067399025,0.015093528,0.07394048,0.032572746,0.0018616597,0.009215714,0.007848633,0.020683866,2.9111302,0.007105098,0.0
3.1684563,0.810404,0.027337316,0.022380069,0.009212329,0.034398638,0.015318746,0.003229746,0.0019408616,0.004790411,0.009539946,2.9175181,0.003269884,0.0
3.1684563,0.810404,0.016942833,0.0076193647,0.01723391,0.030134372,-0.0055721765,0.0024892848,6.518335e-05,0.008961633,0.017853275,2.9203477,0.006113407,0.0
3.1720214,2.1014924,0.062287726,0.06559149,0.0042918446,0.068538375,0.059340842,0.0062202285,0.0070792083,0.002231759,0.0045987666,2.908727,0.0015810238,0.0
3.1720214,2.1014924,0.06159902,0.05903927,0.0025021893,0.06312966,0.05750862,0.006605957,0.005940423,0.0013011383,0.002810521,2.9095414,0.000965967,0.0
3.1761725,1.0127164,0.03123228,0.059302654,0.012749619,0.06422898,0.026305947,0.0010586677,0.008356964,0.0066298014,0.018961517,2.9129274,0.0065094368,0.0
3.1761725,1.0127164,0.055888306,0.06300322,0.0058198543,0.066266775,0.05262475,0.00525742,0.0071072974,0.0030263239,0.006821012,2.9097378,0.0023442016,0.0
3.1793246,2.18857,0.014841597,0.025364289,0.015388053,0.0363656,0.0038402881,0.0007227559,0.0034586557,0.008001787,0.016262654,2.9185882,0.0055720964,0.0
3.182673,1.2133483,0.007571023,0.010801903,0.0031012353,0.01268322,0.0056897067,0.00053537765,0.0013754064,0.0016126422,0.0034967568,2.9210436,0.0011970915,0.0
3.182673,1.2133483,0.028035875,0.013594933,0.015818484,0.038203895,0.0034269132,0.004042124,0.00028747937,0.0082256105,0.017388491,2.9184277,0.005958171,0.0
3.1839929,2.6350584,0.052517176,0.023145277,0.006928122,0.054069325,0.021593122,0.0077527934,0.00011610062,0.0036026232,0.0162381,2.9146001,0.0055712964,0.0
3.1839929,2.6350584,0.07536022,0.04831713,0.016361251,0.0830642,0.04061316,0.009946823,0.0029156199,0.00850785,0.02122552,2.9091995,0.007296,0.0
3.1844828,2.8318255,0.02139362,0.019528715,0.009738942,0.030244647,0.01067769,0.0023703987,0.0018855236,0.005064249,0.009783478,2.9185076,0.0033522197,0.0
3.1844828,2.8318255,0.021068783,0.026606675,0.0085575245,0.03283208,0.014843383,0.0017591976,0.0031990495,0.0044499123,0.008994348,2.917748,0.0030826337,0.0
3.1866276,2.2756476,0.052337993,0.029275496,0.0051759565,0.053446375,0.028167116,0.0072420253,0.0012457763,0.002691497,0.01263963,2.9139307,0.0043376563,0.0
3.1875,2.90625,0.059311785,0.044918586,0.012889911,0.066878006,0.03735237,0.0072910944,0.0035488626,0.0067027532,0.014762819,2.911387,0.0050707166,0.0
3.1935637,1.4143387,0.055295896,0.039747633,0.0018277958,0.055507872,0.039535653,0.0069635366,0.002920989,0.0009504537,0.00798611,2.9124203,0.002742087,0.0
3.1935637,1.4143387,0.032909397,0.04146802,0.011963287,0.049894325,0.02448309,0.0027550037,0.0049802465,0.006220909,0.012705618,2.9147446,0.004359084,0.0
3.1939306,2.3627253,0.07900817,0.057757,0.015913522,0.087517455,0.049247712,0.00987444,0.004349136,0.00827503,0.019134872,2.9077275,0.0065806964,0.0
3.1939306,2.3627253,0.017490089,0.009794633,0.016810209,0.030887306,-0.003602583,0.0024192145,0.00041839617,0.008741308,0.017244944,2.9200413,0.0059057195,0.0
3.195291,2.4368114,0.056353904,0.047592744,0.0024326083,0.05698402,0.04696263,0.0065441756,0.004266274,0.0012649562,0.0050106943,2.9114187,0.0017210491,0.0
3.195291,2.4368114,0.005232652,0.005559621,0.009523714,0.014921254,-0.00412898,0.00051869225,0.000603704,0.0049523306,0.0095251165,2.9218965,0.003259909,0.0
3.2029061,1.6164811,0.036370914,0.028503366,0.012496283,0.045537964,0.019336311,0.0043962435,0.0023506808,0.0064980667,0.013100826,2.9158134,0.004493026,0.0
3.2029061,1.6164811,0.047785673,0.04587433,0.008259496,0.0551446,0.038515404,0.005118794,0.004621845,0.0042949375,0.008314598,2.9125757,0.0028547235,0.0
3.2105405,0.10172867,0.051989112,0.029908331,0.009208685,0.055325445,0.026572,0.007129167,0.0013881655,0.0047885156,0.014376722,2.9138987,0.0049338443,0.0
3.2105405,0.10172867,0.029980775,0.03985766,0.003172334,0.040788792,0.029049642,0.0023476034,0.0049155927,0.0016496135,0.005869575,2.915255,0.0020134002,0.0
3.2118678,1.8278701,0.08733792,0.09191115,0.009262359,0.09916498,0.0800841,0.00872643,0.009915471,0.004816426,0.009540439,2.902949,0.0032864644,0.0
3.2118678,1.8278701,0.05040985,0.025522802,0.0064957445,0.052003276,0.023929376,0.0071838135,0.00071318133,0.0033777868,0.01403695,2.9145696,0.004816131,0.0
3.2143078,0.30412385,0.027437204,0.036812253,0.0055768187,0.039409906,0.024839552,0.0021222152,0.0045597274,0.0028999455,0.007285177,2.9158838,0.0024984456,0.0
3.2169964,2.7550292,0.024049405,0.034621,0.013230865,0.04358285,0.015087555,0.0016765533,0.004425168,0.006880049,0.014247647,2.9165113,0.004885168,0.0
3.2187567,0.5060395,0.023143625,0.052913345,0.012424732,0.05741748,0.018639494,8.489862e-05,0.007825025,0.00646086,0.019388992,2.9145558,0.0066524693,0.0
3.2204359,2.557769,0.037547443,0.053740833,0.01045758,0.058869775,0.0324185,0.0026418495,0.00685213,0.0054379413,0.013225637,2.9128425,0.0045404574,0.0
3.223887,0.7074757,0.024325171,0.034478024,0.018084534,0.04818511,0.010618081,0.0017378951,0.004377636,0.009403956,0.018783513,2.9164963,0.006440438,0.0
3.223887,0.7074757,0.059558906,0.061661433,0.0040386347,0.06478338,0.056436952,0.0060301283,0.0065767854,0.0021000898,0.0041732136,2.909476,0.0014343522,0.0
3.2260404,2.032041,0.068973824,0.07358931,0.009033377,0.08060506,0.06195807,0.0068132686,0.008013295,0.004697356,0.0093234945,2.9070754,0.0032071732,0.0
3.2260404,2.032041,0.066724055,0.062214345,0.013390588,0.07804831,0.050890096,0.0072910576,0.0061185337,0.006963105,0.013579108,2.9086077,0.004668594,0.0
3.230317,0.91018957,0.023280764,0.037998326,0.0059671616,0.04011365,0.021165438,0.0012732294,0.0050997953,0.0031029237,0.009474106,2.9162178,0.003248765,0.0
3.230317,0.91018957,0.018116467,0.010749805,0.013944515,0.02885591,1.0361895e-05,0.0024587119,0.00054338,0.007251147,0.014422774,2.9198635,0.004939537,0.0
3.2368176,1.1108214,0.016585756,0.021549456,0.010486911,0.029844195,0.008291016,0.0013377497,0.0026283117,0.005453193,0.010776589,2.9188209,0.0036921035,0.0
3.239552,2.1581519,0.050924055,0.07553986,0.004066323,0.07619419,0.05026973,0.0033760688,0.009776176,0.0021144878,0.01296223,2.9088862,0.00445608,0.0
3.239552,2.1581519,0.024419012,0.038815998,0.015145196,0.04838638,0.014848627,0.001416612,0.005159828,0.007875501,0.016768876,2.9159977,0.0057506477,0.0
3.2455132,1.3116325,0.05342351,0.06948272,0.0007310207,0.06951593,0.0533903,0.004303425,0.008478821,0.00038013072,0.008062813,2.9092863,0.002771406,0.0
3.246855,2.2452295,0.011524312,0.023551907,0.009675662,0.028930396,0.006145823,0.0002603759,0.0033875504,0.005031344,0.011392286,2.9191651,0.0039025836,0.0
3.24951,2.6782331,0.04070914,0.052576214,0.012394022,0.060383804,0.032901548,0.0033081188,0.006393557,0.006444891,0.013741128,2.912618,0.004717793,0.0
3.25,2.875,0.0111233685,0.0062101916,0.008437019,0.017454162,-0.00012060348,0.001540058,0.00026263206,0.0043872492,0.008787382,2.9211607,0.0030081817,0.0
3.25,2.875,0.059879374,0.051313117,0.0076837754,0.064393155,0.04679934,0.006895622,0.0046683955,0.003995563,0.008796908,2.9106038,0.0030223653,0.0
3.25,2.875,0.038917124,0.03178604,0.004070818,0.04076311,0.029940052,0.004603605,0.0027495231,0.0021168252,0.005411529,2.9151578,0.0018563417,0.0
3.254158,2.332307,0.04075946,0.048771113,0.004247511,0.050603777,0.038926795,0.0036140739,0.005697104,0.0022087055,0.005838491,2.9130402,0.0020042604,0.0
3.254158,2.332307,0.07883108,0.07178271,0.0026381076,0.079709105,0.07090468,0.0087482035,0.006915628,0.0013718158,0.004402213,2.90617,0.0015147816,0.0
3.2555184,2.4063933,0.023113579,0.033189226,0.004660942,0.03501464,0.021288164,0.0016179114,0.004237579,0.0024236897,0.0068632383,2.9167776,0.0023530207,0.0
3.256404,1.512623,0.0265119,0.03385584,0.0115518505,0.042305283,0.018062457,0.0021844099,0.004093834,0.0060069617,0.012121413,2.9163203,0.0041564065,0.0
3.256404,1.512623,0.021416113,0.021115003,0.010354467,0.03162112,0.010909998,0.002250762,0.0021724736,0.0053843223,0.010355562,2.9183266,0.003548459,0.0
3.2568789,2.4804795,0.045589756,0.044952393,0.010300083,0.055576086,0.034966066,0.004791048,0.004625334,0.0053560426,0.01030501,2.9129264,0.0035376828,0.0
3.2568789,2.4804795,0.04317801,0.041497998,0.009257147,0.051633187,0.033042826,0.0046215532,0.0041847504,0.004813716,0.00929518,2.9135864,0.0031902883,0.0
3.265556,1.7193886,0.055231802,0.07516158,0.011547266,0.08044918,0.049944207,0.004189584,0.009371326,0.0060045775,0.015252486,2.9084442,0.005244208,0.0
3.265556,1.7193886,0.04373963,0.032471467,0.0068625044,0.04698456,0.029226536,0.005427838,0.0024981154,0.003568502,0.008879012,2.9145384,0.0030464558,0.0
3.2666667,0.0,0.068785936,0.0789868,0.008691482,0.08396388,0.06380885,0.0063580684,0.0090102935,0.00451957,0.010077514,2.9064894,0.003467246,0.0
3.2666667,0.0,0.075569786,0.058011185,0.0059589674,0.07740111,0.05617986,0.009228827,0.0046635917,0.0030986627,0.010610625,2.9080856,0.0036486634,0.0
3.2666667,0.0,0.03579742,0.07025498,0.0035872678,0.07062448,0.03542792,0.0010352421,0.009994206,0.001865379,0.017598279,2.911182,0.006045063,0.0
3.270434,0.20239517,0.01534468,0.009799731,0.016764266,0.02956418,-0.004419769,0.0020283526,0.0005866659,0.008717418,0.016991975,2.9202821,0.0058186073,0.0
3.2742012,0.40479034,0.030079314,0.05612593,0.013425378,0.061806828,0.024398416,0.0010966122,0.007868732,0.006981196,0.018704206,2.9134142,0.00642003,0.0
3.2742012,0.40479034,0.0702319,0.045499846,0.008996889,0.07315844,0.042573307,0.009233217,0.0028028833,0.0046783816,0.015292568,2.9100933,0.0052550095,0.0
3.2793314,0.6062265,0.04550724,0.0490483,0.010362002,0.057789948,0.036765594,0.0044565494,0.0053772256,0.005388241,0.010512177,2.912475,0.003609362,0.0
3.279729,1.9235595,0.07982816,0.06116724,0.016758757,0.089678764,0.05131663,0.009757678,0.004905841,0.008714553,0.019181067,2.9072518,0.006597663,0.0
3.2820237,2.6014369,0.02189348,0.044930603,0.012182938,0.050178118,0.01664597,0.0004800263,0.0064696777,0.006335127,0.016766075,2.915594,0.0057504834,0.0
3.2820237,2.6014369,0.045236457,0.051322713,0.01540878,0.06398599,0.03257318,0.0042298627,0.0058122897,0.008012565,0.015706405,2.9122498,0.0053932206,0.0
3.2825136,2.7982037,0.03078653,0.05465491,0.006466602,0.056294292,0.029147148,0.0013400649,0.0075458437,0.0033626326,0.013573572,2.9135,0.004658854,0.0
3.2825136,2.7982037,0.07161869,0.07807409,0.006224293,0.0818578,0.06783497,0.006944822,0.008623226,0.0032366319,0.0070114136,2.9062734,0.00241251,0.0
3.284462,0.8076627,0.024377411,0.02916535,0.00948064,0.036549605,0.01699316,0.002161791,0.003406655,0.0049299323,0.009778223,2.917088,0.0033520493,0.0
3.284462,0.8076627,0.071814135,0.07680639,0.0039753695,0.07900432,0.0696162,0.0070792725,0.00837726,0.002067192,0.0046940595,2.906394,0.0016150803,0.0
3.284462,0.8076627,0.055193145,0.06087397,0.0010892984,0.06107568,0.05499143,0.005296982,0.006773996,0.0005664351,0.0030421242,2.9100556,0.0010453835,0.0
3.284462,0.8076627,0.040033195,0.05187621,0.005461692,0.054010406,0.037899002,0.0032396966,0.0063188802,0.0028400796,0.008055702,2.9127727,0.0027656474,0.0
3.284462,0.8076627,0.039026663,0.06168158,0.0049761906,0.06272642,0.037981823,0.002291689,0.008181967,0.0025876188,0.0123723,2.911783,0.004249046,0.0
3.284462,0.8076627,0.054997064,0.032941643,0.010010719,0.05886314,0.029075569,0.007440016,0.0017056076,0.0052055735,0.014893786,2.9132192,0.0051124836,0.0
3.2909625,1.0082946,0.044850465,0.07365032,0.008353416,0.07589784,0.042602945,0.002418059,0.009906021,0.004343776,0.016647449,2.9097817,0.005721202,0.0
3.293571,2.0887003,0.04932966,0.04759339,0.006063018,0.05458638,0.042336673,0.0052657137,0.004814282,0.003152769,0.006124854,2.9122088,0.0021031646,0.0
3.297463,1.2089263,0.05092028,0.029661415,0.010383514,0.055150263,0.025431432,0.0069539,0.0014265953,0.0053994264,0.014859416,2.9140468,0.005099237,0.0
3.297463,1.2089263,0.05930886,0.0675551,0.009921675,0.07417627,0.05268769,0.0055249142,0.0076689357,0.0051592705,0.010744289,2.9088411,0.0036936663,0.0
3.3070824,2.214811,0.07298288,0.080264024,0.010143032,0.08740004,0.06584687,0.007022288,0.008915387,0.0052743764,0.010776587,2.9058738,0.003708553,0.0
3.3070824,2.214811,0.074096546,0.08272769,0.0013990337,0.0829488,0.073875435,0.00703281,0.009276909,0.00072749745,0.004536681,2.9054713,0.0015614268,0.0
3.3083537,1.4099168,0.073868886,0.05829354,0.012193215,0.08054919,0.051613234,0.00889724,0.00484765,0.006340471,0.014467977,2.9082453,0.004974813,0.0
3.3125,2.84375,0.058941904,0.061979685,0.0057751266,0.06643232,0.05448927,0.00589301,0.006682833,0.0030030655,0.005971525,2.9095094,0.0020524163,0.0
3.3143854,2.3018887,0.048169307,0.04123873,0.010266113,0.05553921,0.03386883,0.0055501927,0.0037482418,0.0053383783,0.010835189,2.913054,0.0037195291,0.0
3.3143854,2.3018887,0.024132254,0.02235735,0.013838699,0.037111927,0.009377677,0.0026481966,0.0021867217,0.007196123,0.013867125,2.9178813,0.0047524637,0.0
3.3150272,2.7214077,0.07653336,0.07361452,0.0049231523,0.08020885,0.06993903,0.0081871385,0.0074282396,0.002560039,0.0051349103,2.9062223,0.0017668677,0.0
3.3150272,2.7214077,0.07848796,0.058318384,0.009925183,0.082552806,0.054253533,0.0097359745,0.004491884,0.0051610945,0.014149636,2.907723,0.0048662256,0.0
3.3157458,2.375975,0.045633905,0.039655685,0.017178496,0.060081407,0.02520818,0.005212227,0.0036578893,0.008932818,0.017436612,2.9135172,0.0059847296,0.0
3.3171062,2.450061,0.055052146,0.07492801,0.007763314,0.077600844,0.052379303,0.004175105,0.009342829,0.004036923,0.012610771,2.9084907,0.004335847,0.0
3.3184667,2.5241473,0.05518568,0.04551018,0.009707141,0.06119378,0.039502084,0.0064939987,0.0039783693,0.005047713,0.010845847,2.9117844,0.0037248114,0.0
3.3184667,2.5241473,0.018698184,0.017629411,0.008484817,0.026665425,0.009662168,0.0020279752,0.0017500942,0.0044121044,0.008501628,2.9190242,0.00291249,0.0
3.3192444,1.6109072,0.025674291,0.056972865,0.002567641,0.05718211,0.02546505,0.00022883723,0.008366466,0.0013351731,0.015858531,2.9138145,0.0054425327,0.0
3.3192444,1.6109072,0.06848293,0.06238216,0.0142408665,0.079996444,0.05086865,0.0075980835,0.006011884,0.00740525,0.014563898,2.9083912,0.005007544,0.0
3.3192444,1.6109072,0.02550696,0.028447252,0.013643805,0.040699888,0.013254325,0.0024233807,0.0031878564,0.0070947777,0.013722781,2.9170418,0.0047043483,0.0
3.3192444,1.6109072,0.05344719,0.04796529,0.00861839,0.05974999,0.041662484,0.005986095,0.004560801,0.0044815624,0.009043753,2.9117038,0.0031060004,0.0
3.3192444,1.6109072,0.053642992,0.04403264,0.010966865,0.0608112,0.036864437,0.0063284775,0.0038297868,0.0057027694,0.011973381,2.9121242,0.004111563,0.0
3.3192444,1.6109072,0.0678423,0.03464003,0.004732345,0.06850363,0.033978697,0.0096453745,0.0010127857,0.0024608192,0.017262468,2.9115834,0.0059288936,0.0
3.32656,0.10066649,0.061007388,0.06500986,0.011765064,0.07494268,0.051074564,0.0060325745,0.0070732175,0.0061178324,0.011934057,2.9089365,0.00410255,0.0
3.32656,0.10066649,0.049070716,0.024272613,0.0031624932,0.04946767,0.023875657,0.0070376056,0.00059009955,0.0016444963,0.012796007,2.914861,0.0043899203,0.0
3.3303273,0.30306166,0.057250954,0.029384332,0.016612614,0.064999804,0.021635482,0.008127695,0.0008823736,0.008638558,0.021682162,2.9133658,0.0074423067,0.0
3.3334172,1.8150781,0.059925336,0.05510458,0.009842145,0.067647964,0.047381956,0.0066082533,0.005354856,0.005117915,0.010133004,2.9101722,0.003481926,0.0
3.3347762,0.50497735,0.04112665,0.041196976,0.015684396,0.056846246,0.025477378,0.0042716856,0.0042899703,0.008155885,0.015684433,2.9138508,0.0053827167,0.0
3.3399065,0.7064135,0.039471198,0.053538557,0.010003632,0.05873375,0.034276005,0.0030077503,0.006665263,0.0052018883,0.012228873,2.912649,0.00419854,0.0
3.3399065,0.7064135,0.016771838,0.0147022605,0.0029797317,0.018891346,0.012582753,0.0019056979,0.0013676079,0.0015494603,0.0031542964,2.9195702,0.0010803975,0.0
3.3450136,2.7669537,0.06349958,0.06369796,0.014437899,0.07803701,0.049160525,0.006588481,0.006640061,0.007507707,0.014438242,2.9088037,0.0049636355,0.0
3.3451073,0.9057677,0.076252915,0.06406248,0.008894954,0.08094064,0.059374757,0.008881155,0.0057116435,0.0046253754,0.010782942,2.9073281,0.003708884,0.0
3.3451073,0.9057677,0.081141494,0.08547501,0.009382992,0.09293817,0.07367833,0.008100701,0.009227414,0.004879155,0.00962992,2.90437,0.0033156658,0.0
3.3475409,2.6446114,0.029936573,0.014788359,0.010476243,0.03528991,0.009435025,0.0042949636,0.00035642862,0.0054476457,0.012927443,2.9180799,0.0044301194,0.0
3.3475409,2.6446114,0.031505994,0.039543547,0.012428937,0.048587274,0.022462267,0.002649694,0.0047394573,0.006463046,0.013062503,2.915119,0.0044809505,0.0
3.34759,2.019249,0.0829916,0.07176549,0.004687973,0.08469178,0.070065305,0.009506762,0.006587973,0.0024377457,0.0073132366,2.9057038,0.0025168555,0.0
3.34759,2.019249,0.04969202,0.046512082,0.011084151,0.05929966,0.036904443,0.0054160045,0.004589221,0.0057637584,0.011197608,2.9122896,0.0038449499,0.0
3.3516078,1.1063994,0.06950346,0.06805378,0.001683619,0.07061164,0.0669456,0.007341434,0.0069645173,0.0008754818,0.0018330216,2.9076383,0.000630416,0.0
3.3603034,1.3072106,0.076793596,0.059254166,0.008281404,0.080085784,0.055961978,0.009354608,0.004794357,0.00430633,0.012061903,2.9078083,0.004148108,0.0
3.3611014,2.1453598,0.081271306,0.08513147,0.013880164,0.0972151,0.06918767,0.008151122,0.009154764,0.0072176848,0.014013715,2.904394,0.004825005,0.0
3.3711941,1.508201,0.07118318,0.04602601,0.011522997,0.07566333,0.041545868,0.009365309,0.002824445,0.005991958,0.01705873,2.9099271,0.0058622533,0.0
3.3711941,1.508201,0.014641584,0.033415817,0.01227433,0.039481115,0.008576284,5.833432e-05,0.004939635,0.0063826507,0.015452415,2.917705,0.005296085,0.0
3.3746128,2.2714705,0.0111184735,0.02010748,0.008496224,0.02522476,0.006001193,0.0004551786,0.00279232,0.004418036,0.009611784,2.919598,0.0032921599,0.0
3.3746128,2.2714705,0.06491463,0.08096984,0.0131858615,0.08837951,0.057504963,0.005498814,0.009673169,0.0068566473,0.015437273,2.9067018,0.0053109243,0.0
3.3746128,2.2714705,0.076029666,0.0502675,0.0073674913,0.07798779,0.048309367,0.009916532,0.003218371,0.003831095,0.0148392115,2.9089048,0.0051013054,0.0
3.3746128,2.2714705,0.028519157,0.04574437,0.014171903,0.053715486,0.020548042,0.0016224253,0.0061009806,0.007369389,0.016583722,2.9147575,0.0056895716,0.0
3.3746128,2.2714705,0.035387933,0.027218696,0.012868875,0.044804875,0.017801758,0.0043175453,0.0021935434,0.0066918144,0.013501558,2.9160686,0.0046300553,0.0
3.375,2.8125,0.0422499,0.06483671,0.01161352,0.06974253,0.037344083,0.0026322177,0.008504788,0.00603903,0.016199224,2.9110656,0.005564706,0.0
3.3759732,2.3455567,0.08799758,0.08218536,0.012587205,0.0980098,0.07217314,0.009605099,0.008093923,0.0065453458,0.012918331,2.9039688,0.004448509,0.0
3.3759732,2.3455567,0.067038506,0.060084473,0.0064847134,0.07091956,0.056203425,0.0075144176,0.00570637,0.0033720506,0.0073580667,2.908812,0.0025295778,0.0
3.3773336,2.419643,0.03330519,0.06867615,0.01573792,0.07466467,0.02731667,0.00070480455,0.0099012535,0.008183717,0.023673998,2.91164,0.008130812,0.0
3.3773336,2.419643,0.057293218,0.035125233,0.0013868114,0.057379637,0.03503881,0.007687596,0.0019239212,0.00072114187,0.011170413,2.9127154,0.0038350513,0.0
3.3775272,2.6901577,0.066797145,0.07160279,0.0137752835,0.083183244,0.05521669,0.0065720617,0.00782153,0.0071631465,0.013983278,2.9075437,0.0048093097,0.0
3.378694,2.493729,0.022327995,0.01733562,0.01197611,0.03206529,0.007598321,0.0027115166,0.0014134988,0.0062275766,0.012233485,2.918649,0.004191489,0.0
3.378694,2.493729,0.011911725,0.012118175,0.007717092,0.019732732,0.0042971675,0.0012227161,0.0012763931,0.0040128874,0.0077177826,2.9204075,0.0026427074,0.0
3.3800545,2.5678153,0.03697352,0.025568778,0.008303764,0.04134436,0.02119794,0.004734816,0.0017695823,0.004317957,0.01007321,2.9160757,0.003454372,0.0
3.3800545,2.5678153,0.07895694,0.07100952,0.012839609,0.088423684,0.061542764,0.00883142,0.006765089,0.006676596,0.01344046,2.9062426,0.004624686,0.0
3.3800545,2.5678153,0.057323493,0.042184193,0.007788804,0.060615018,0.03889267,0.0071425075,0.0032062903,0.0040501775,0.010861173,2.9119182,0.0037299034,0.0
3.3800545,2.5678153,0.05698751,0.057845756,0.008602174,0.066029504,0.04880376,0.005859757,0.0060829013,0.00447313,0.008612871,2.9101944,0.0029595518,0.0
3.3800545,2.5678153,0.069432884,0.08428442,0.0048448658,0.08572515,0.06799216,0.006062599,0.009923998,0.00251933,0.008866496,2.9058208,0.003051288,0.0
3.3800545,2.5678153,0.046664044,0.035938274,0.0023576336,0.0471594,0.035442922,0.0056896703,0.0029009697,0.0012259693,0.005858239,2.9138196,0.0020105015,0.0
3.3800545,2.5678153,0.06742444,0.05281763,0.017036585,0.07865708,0.04158499,0.008151472,0.004353702,0.008859023,0.018536046,2.909586,0.006370682,0.0
3.3833334,0.0,0.007517528,0.013380101,0.012343359,0.023135459,-0.0022378303,0.00032454208,0.001848811,0.006418546,0.012686645,2.9207597,0.004343611,0.0
3.3864534,0.20133299,0.015013884,0.035003297,0.009659519,0.038908247,0.011108934,2.269676e-06,0.005199516,0.0050229495,0.013899656,2.9174845,0.0047642603,0.0
3.3864534,0.20133299,0.03185782,0.022046117,0.018693233,0.04627823,0.0076257084,0.004078525,0.0015274832,0.00972048,0.019326262,2.9170473,0.0066252826,0.0
3.3871055,1.7065966,0.04698387,0.06995067,0.015475991,0.07773836,0.039196182,0.0030949116,0.009066279,0.008047515,0.019271089,2.909958,0.006622463,0.0
3.3871055,1.7065966,0.040492546,0.04428788,0.0148085905,0.0573199,0.027460527,0.0039151884,0.0049019745,0.0077004666,0.014929686,2.9135745,0.005124182,0.0
3.3902206,0.40372816,0.076086365,0.0771071,0.006616288,0.08323268,0.069960795,0.0078333635,0.008098755,0.0034404693,0.0066359416,2.9058797,0.0022836258,0.0
3.3902206,0.40372816,0.046834227,0.022604177,0.011322421,0.051301457,0.01813695,0.0067607025,0.00046089015,0.0058876583,0.016582254,2.9153001,0.0056880093,0.0
3.3953512,0.60516435,0.088380165,0.083115205,0.012523294,0.09854467,0.072950706,0.009602203,0.008233313,0.0065121124,0.012796983,2.9038212,0.004406946,0.0
3.3953512,0.60516435,0.07192176,0.06199594,0.002997405,0.07275668,0.061161008,0.008254076,0.0056733624,0.0015586504,0.005797835,2.9080477,0.001993721,0.0
3.3990974,0.8057635,0.064516164,0.052170422,0.0036371283,0.065508,0.051178582,0.0076726475,0.0044627558,0.0018913065,0.0071647093,2.9099858,0.0024621114,0.0
3.3990974,0.8057635,0.038040396,0.02939,0.013003965,0.047419593,0.020010801,0.0046309317,0.0023818286,0.0067620613,0.013704396,2.915526,0.0047004884,0.0
3.4012783,1.9107676,0.035967972,0.064380795,0.0042508654,0.06500314,0.03534563,0.0015244689,0.0089118015,0.00221045,0.014828756,2.9118235,0.0050926013,0.0
3.4057524,1.0038726,0.044848192,0.021770103,0.005223546,0.04597544,0.020642854,0.0064643016,0.00046399995,0.0027162437,0.0126662925,2.9156172,0.004344292,0.0
3.4057524,1.0038726,0.07002869,0.052382223,0.012330797,0.07636785,0.04604307,0.0086594075,0.004071326,0.0064120134,0.01516239,2.909342,0.0052116215,0.0
3.4075136,2.7357037,0.06924727,0.04915459,0.005734129,0.07076852,0.047633335,0.008768944,0.0035448475,0.0029817468,0.011567593,2.909793,0.0039754007,0.0
3.4100409,2.6133614,0.081043705,0.07085176,0.010087614,0.08724945,0.06464601,0.009223516,0.00657361,0.005245559,0.011301719,2.9060256,0.0038890636,0.0
3.4100409,2.6133614,0.080884665,0.07647047,0.0047820876,0.08394441,0.07341072,0.008756312,0.0076086204,0.0024866853,0.005266845,2.9054117,0.0018127707,0.0
3.412253,1.2045044,0.025280422,0.024023857,0.0035603186,0.028267467,0.02103681,0.0027271756,0.0024004688,0.0018513656,0.003615329,2.9175646,0.0012391598,0.0
3.412253,1.2045044,0.015221612,0.0345623,0.013645132,0.041616343,0.008167567,7.4473886e-05,0.005103052,0.007095468,0.016724389,2.9175107,0.005732417,0.0
3.4151204,2.0759084,0.021277456,0.015670255,0.0039875493,0.023348354,0.0135993585,0.0026502167,0.0011923447,0.0020735255,0.0048744977,2.9189546,0.0016699464,0.0
3.4231436,1.4054948,0.057565715,0.03972574,0.014541938,0.06570545,0.031586006,0.0073783514,0.0027399585,0.007561807,0.017059721,2.9121673,0.005858084,0.0
3.4231436,1.4054948,0.06274089,0.06346804,0.009683646,0.07279494,0.053413995,0.0064683342,0.0066573923,0.0050354954,0.009690471,2.9089148,0.003331301,0.0
3.4286318,2.2020192,0.08949892,0.08174912,0.015806412,0.10189847,0.06934958,0.009912372,0.007897423,0.008219333,0.016274445,2.9038491,0.005604439,0.0
3.4286318,2.2020192,0.01402595,0.031370044,0.016362898,0.041216873,0.004179118,0.00010585921,0.0046153236,0.008508706,0.018518876,2.9180043,0.0063464185,0.0
3.4322994,1.6021996,0.07957441,0.07276319,0.012404313,0.08903213,0.06330548,0.008807014,0.007036095,0.0064502424,0.012863323,2.905976,0.004426507,0.0
3.4322994,1.6021996,0.0270245,0.057043023,0.012635444,0.061653458,0.022414068,0.000469103,0.008273918,0.0065704305,0.019619696,2.9136548,0.006733706,0.0
3.4375,2.78125,0.042227186,0.054352924,0.014263341,0.06378848,0.032791626,0.0034458193,0.006598511,0.0074169366,0.015498428,2.9122474,0.00532181,0.0
3.4400272,2.6589077,0.030874722,0.05060479,0.009818059,0.054657847,0.026821667,0.0016720252,0.0068018427,0.00510539,0.01391809,2.913946,0.004776372,0.0
3.4400272,2.6589077,0.082026914,0.084363095,0.0018994819,0.08542491,0.080965094,0.008348575,0.008955983,0.0009877305,0.0022299066,2.9043953,0.00076776964,0.0
3.4432268,0.10066649,0.058874007,0.06945981,0.018475855,0.08338597,0.044947855,0.0052972035,0.008049511,0.009607444,0.019219056,2.908676,0.006607493,0.0
3.446347,0.30199948,0.05894604,0.07848896,0.0127520105,0.084782846,0.052652158,0.0046060393,0.009687198,0.0066310447,0.016065344,2.9076521,0.0055251946,0.0
3.446347,0.30199948,0.074386045,0.06485738,0.0070275157,0.07811199,0.061131433,0.008479383,0.0060019307,0.003654308,0.008490279,2.9074488,0.002920182,0.0
3.4469905,2.2930737,0.07255949,0.072553836,0.0023034215,0.07486008,0.07025324,0.007546628,0.007545156,0.0011977791,0.0023034215,2.9067886,0.00079242827,0.0
3.4469905,2.2930737,0.08193658,0.06796827,0.011287931,0.0882263,0.061678544,0.009610932,0.00597917,0.005869724,0.01327388,2.9062495,0.0045673572,0.0
3.448351,2.3671598,0.003305163,0.0014331826,0.014153728,0.016553815,-0.011815471,0.00048975134,3.0365247e-06,0.0073599378,0.014184643,2.9225774,0.0048534703,0.0
3.4497113,2.4412458,0.0436303,0.050093077,0.012564926,0.05983548,0.033887893,0.0040334538,0.0057137758,0.006533761,0.012973793,2.9125686,0.004454416,0.0
3.4507957,0.50391513,0.07886235,0.06603495,0.0015102803,0.07903776,0.065859534,0.0092022205,0.0058670966,0.0007853457,0.0065891147,2.906813,0.0022667833,0.0
3.4507957,0.50391513,0.05517705,0.026309634,0.00878586,0.057640776,0.02384591,0.007990071,0.00048454307,0.0045686467,0.016897433,2.913945,0.0057988167,0.0
3.4510717,2.515332,0.040235408,0.019897988,0.003320235,0.040763736,0.019369662,0.0057708,0.0004830721,0.0017265221,0.010697037,2.9163468,0.0036679578,0.0
3.4510717,2.515332,0.0682265,0.06578817,0.012419148,0.07948618,0.054528486,0.007285745,0.0066517796,0.0064579565,0.012478845,2.908037,0.0042911577,0.0
3.454542,0.7045143,0.03198759,0.043286256,0.0030191347,0.044042397,0.031231442,0.0024454126,0.005383066,0.0015699499,0.0064054774,2.9146438,0.002197688,0.0
3.4549665,1.802286,0.04444001,0.020381143,0.009370811,0.047659162,0.017161991,0.006498352,0.00024304714,0.0048728213,0.0152485855,2.9158194,0.005229606,0.0
3.4549665,1.802286,0.060709342,0.076569654,0.0082976045,0.0801172,0.0571618,0.0050766664,0.009200348,0.004314754,0.011477701,2.9076698,0.0039473884,0.0
3.4597428,0.90386844,0.038666274,0.044647478,0.010307701,0.052389648,0.0309241,0.0035547582,0.005109871,0.005360004,0.010732774,2.9137394,0.0036835049,0.0
3.4663978,1.1019776,0.022996102,0.030555062,0.0049213534,0.032980755,0.020570407,0.0018019956,0.0037673246,0.0025591035,0.006205174,2.917087,0.0021271817,0.0
3.4663978,1.1019776,0.00591384,0.006898158,0.01073963,0.017156899,-0.004344902,0.0005382625,0.00079418515,0.005584607,0.010750901,2.9216692,0.0036797118,0.0
3.4691393,2.0064569,0.0137318075,0.016375428,0.011928497,0.027055126,0.003052109,0.0012219053,0.0019092466,0.006202818,0.012001509,2.919724,0.004110494,0.0
3.4691393,2.0064569,0.0354948,0.017401947,0.010704673,0.040463645,0.0124331005,0.0051027015,0.00039855976,0.0055664293,0.014015272,2.9171607,0.004804422,0.0
3.4700136,2.7044537,0.03740102,0.058106456,0.008764909,0.061318483,0.03418899,0.002274682,0.007658094,0.004557752,0.013564747,2.912368,0.004657635,0.0
3.4700136,2.7044537,0.08866738,0.07923426,0.011085208,0.09599771,0.07190392,0.009957189,0.0075045787,0.0057643075,0.012046896,2.9042253,0.004148058,0.0
3.4725409,2.5821114,0.032423507,0.060130328,0.0105928155,0.06371609,0.028837748,0.0012109128,0.008414685,0.0055082636,0.017439172,2.9127002,0.005987287,0.0
3.4725409,2.5821114,0.025399808,0.01307256,0.014171422,0.03468997,0.003782399,0.003603105,0.00039802073,0.0073691388,0.015453786,2.918783,0.005294599,0.0
3.4750934,1.3027886,0.014779863,0.015543031,0.00557603,0.020750519,0.009572376,0.0014775784,0.001676002,0.0028995352,0.0055890717,2.9196997,0.0019142625,0.0
3.4750934,1.3027886,0.026821632,0.021701787,0.009339758,0.033945937,0.014577481,0.0031887975,0.0018576373,0.004856674,0.009684227,2.9176526,0.0033191845,0.0
3.4826508,2.1325676,0.008393,0.00982098,0.006743913,0.015888594,0.0023253863,0.0007614895,0.0011327642,0.0035068344,0.006781604,2.9210615,0.0023216233,0.0
3.4826508,2.1325676,0.035431292,0.064236425,0.0064512817,0.06561527,0.034052446,0.0014380532,0.008927388,0.0033546663,0.01578141,2.9119,0.0054196264,0.0
3.484249,1.4994934,0.033272494,0.015465743,0.008003838,0.03634123,0.012397005,0.0048492653,0.00021951064,0.0041619954,0.011972113,2.9176283,0.0041033714,0.0
3.5,0.0,0.034526307,0.016352998,0.006484099,0.036602575,0.014276732,0.0050082537,0.00028319337,0.0033717314,0.011162922,2.9173875,0.0038263418,0.0
3.5,2.75,0.063417785,0.04069555,0.011103631,0.067942694,0.03617065,0.008367782,0.0024600027,0.0057738875,0.015886022,2.9114,0.0054564886,0.0
3.5,2.75,0.04375389,0.05097169,0.0018845672,0.051434122,0.043291457,0.003987415,0.0058640437,0.0009799749,0.0040713325,2.912456,0.0013979035,0.0
3.5001607,1.697889,0.05889261,0.07683202,0.007293375,0.07942298,0.056301653,0.004725557,0.009389803,0.0037925548,0.011560664,2.9078445,0.0039756815,0.0
3.5010095,2.223622,0.0059910156,0.010561513,0.011498267,0.019999426,-0.0034468966,0.00026656676,0.001454896,0.0059790984,0.011723161,2.9212484,0.0040130652,0.0
3.5025272,2.6276577,0.018333055,0.029074708,0.0046838345,0.030830175,0.016577587,0.0010687887,0.003861618,0.0024355936,0.007126294,2.917778,0.0024423702,0.0
3.5031202,0.20133299,0.025002364,0.017167052,0.0036908896,0.02646715,0.015702264,0.0032113998,0.001174219,0.0019192623,0.005382443,2.9183671,0.0018443337,0.0
3.5062404,0.40266597,0.046704695,0.061019156,0.0038492368,0.06198858,0.045735266,0.0037407593,0.0074625197,0.002001603,0.008126657,2.910994,0.002791712,0.0
3.5062404,0.40266597,0.05718438,0.07871581,0.0035661727,0.07929109,0.056609094,0.004267723,0.009865895,0.0018544096,0.011340998,2.9078248,0.0039001657,0.0
3.5062404,0.40266597,0.061120287,0.07118822,0.016768157,0.083661735,0.048646774,0.0055712108,0.008188872,0.0087194415,0.01750748,2.9082289,0.00601998,0.0
3.5062404,0.40266597,0.08409679,0.08197223,0.014704414,0.09777724,0.068291776,0.008911781,0.008359394,0.0076462943,0.014742732,2.9044316,0.005075944,0.0
3.5062404,0.40266597,0.08041836,0.070317425,0.0048297434,0.082356006,0.06837979,0.009151382,0.006525138,0.0025114664,0.006988108,2.906156,0.002404588,0.0
3.5062404,0.40266597,0.055574235,0.026607625,0.010056318,0.05872316,0.023458695,0.008039115,0.00050779723,0.005229285,0.017632231,2.9138668,0.0060511455,0.0
3.5099866,0.6032651,0.07354667,0.067148,0.0062579503,0.07737569,0.06331899,0.008147948,0.0064842943,0.0032541337,0.0070283487,2.9072855,0.0024174952,0.0
3.513733,0.80386424,0.07547752,0.06094317,0.0084969085,0.0793911,0.057029594,0.00898334,0.00520441,0.004418392,0.011180753,2.9077663,0.0038451345,0.0
3.513733,0.80386424,0.01844142,0.019441519,0.013264019,0.03221491,0.0056680283,0.0018398998,0.0020999252,0.0068972893,0.01327344,2.9188492,0.0045474907,0.0
3.5193682,2.3146765,0.054756597,0.06254441,0.006900897,0.06657419,0.050726812,0.0050872355,0.007112067,0.003588466,0.007923691,2.9099166,0.0027229958,0.0
3.5193682,2.3146765,0.049168155,0.028776964,0.009718831,0.053058222,0.0248869,0.0067040003,0.0014022909,0.0050537917,0.014085661,2.9143434,0.0048332196,0.0
3.520388,1.0019734,0.017101305,0.024521725,0.015141974,0.036401417,0.0052216128,0.0011997428,0.0031290518,0.007873826,0.015589902,2.9184287,0.0053418824,0.0
3.5207286,2.3887627,0.054311115,0.04067774,0.012203746,0.06147293,0.033515923,0.006711758,0.0031670814,0.0063459473,0.013978504,2.9124262,0.0047996077,0.0
3.522089,2.462849,0.03742729,0.025069468,0.014461411,0.046974517,0.015522243,0.004856348,0.0016433139,0.007519933,0.015726138,2.916081,0.0053929016,0.0
3.522089,2.462849,0.014069975,0.016980741,0.005687386,0.021396006,0.00965471,0.0012362376,0.0019930366,0.0029574404,0.0058706477,2.919618,0.002010759,0.0
3.5228276,1.8979754,0.029435484,0.029773768,0.0050617987,0.03466925,0.024540002,0.003034904,0.0031228575,0.002632135,0.0050646244,2.9164507,0.0017365712,0.0
3.5228276,1.8979754,0.08398144,0.08482607,0.009566876,0.09397995,0.07482756,0.008668188,0.00888779,0.004974775,0.009576194,2.9041235,0.0032974472,0.0
3.527043,1.2000824,0.05387117,0.034417015,0.008482952,0.057050545,0.031237643,0.007120025,0.002061945,0.0044111344,0.012906451,2.9131799,0.0044303653,0.0
3.527043,1.2000824,0.039806604,0.0326359,0.012632156,0.049352363,0.023090139,0.004699201,0.0028348183,0.0065687206,0.013131112,2.9149623,0.0045047277,0.0
3.527043,1.2000824,0.05004627,0.07376344,0.0068913554,0.07562042,0.048189286,0.003354872,0.009521335,0.0035835044,0.013715567,2.9091847,0.004714574,0.0
3.527043,1.2000824,0.07855895,0.06555171,0.0033686608,0.0793796,0.06473106,0.009184694,0.005802813,0.0017517034,0.007324271,2.9069014,0.0025196145,0.0
3.527043,1.2000824,0.07305902,0.079123445,0.013857173,0.09027628,0.06190618,0.007125112,0.008701862,0.0072057294,0.014185049,2.9059935,0.004881308,0.0
3.527043,1.2000824,0.062903866,0.052002434,0.0065271435,0.065956905,0.04894939,0.007392313,0.0045579406,0.0033941143,0.008503757,2.910186,0.0029220665,0.0
3.5325136,2.6732037,0.03439276,0.039960697,0.014904531,0.052339032,0.022014422,0.0031425476,0.004590211,0.007750355,0.015162305,2.9147472,0.005201928,0.0
3.5361989,1.3967872,0.040782716,0.062584385,0.016001044,0.07104489,0.03232221,0.0025408717,0.008209305,0.008320542,0.019361341,2.911484,0.0066499906,0.0
3.5366697,2.0631163,0.048117742,0.07094334,0.016161341,0.07931541,0.039745674,0.0032238483,0.009158502,0.008403896,0.019784868,2.9097188,0.006799581,0.0
3.5366697,2.0631163,0.073395476,0.07761988,0.0101897875,0.085914075,0.06510128,0.0073036253,0.008401969,0.005298689,0.010406397,2.9061248,0.00358085,0.0
3.5435581,2.5296283,0.069091775,0.03600165,0.010147665,0.07195584,0.033137582,0.009766574,0.0011631409,0.005276785,0.019409128,2.9112897,0.0066668484,0.0
3.5453546,1.5934919,0.052859798,0.055840995,0.009654292,0.064119086,0.04458171,0.005264885,0.006039996,0.0050202315,0.009768687,2.9108841,0.0033559175,0.0
3.5453546,1.5934919,0.019366449,0.02356363,0.009618045,0.031309374,0.011620709,0.0016867302,0.0027779974,0.005001383,0.009844333,2.9182816,0.003373332,0.0
3.5550284,2.1541708,0.03404112,0.03730915,0.008309591,0.044143863,0.027206413,0.0032853696,0.0041350573,0.0043209866,0.008468725,2.915085,0.002905138,0.0
3.5598934,0.10066649,0.03907776,0.028034404,0.006338576,0.041962415,0.025149748,0.004925468,0.0020541959,0.003296059,0.008406334,2.9155617,0.0028832639,0.0
3.5625,2.71875,0.049694467,0.03796224,0.00787931,0.05365153,0.034005176,0.006083337,0.0030329588,0.004097241,0.009823177,2.913251,0.0033718953,0.0
3.5630136,0.30199948,0.017453037,0.025412174,0.0045526726,0.027479405,0.015385805,0.001194303,0.0032636782,0.0023673896,0.0060468,2.918289,0.002072036,0.0
3.5630136,0.30199948,0.0405379,0.06392038,0.0075065224,0.06612277,0.03833551,0.0023921076,0.008471552,0.0039033913,0.01389363,2.9113612,0.004772211,0.0
3.5650272,2.5964077,0.010383216,0.022602111,0.017113796,0.034664273,-0.0016789455,0.00012678052,0.003303693,0.008899173,0.018171608,2.9194002,0.006224432,0.0
3.5650272,2.5964077,0.05713324,0.04974831,0.0072319955,0.061560873,0.04532067,0.0065178806,0.004597799,0.0037606372,0.008120101,2.9110887,0.002789369,0.0
3.565431,0.50201595,0.029450879,0.016664721,0.010312684,0.035191342,0.0109242555,0.004060211,0.0007358106,0.005362595,0.012133543,2.9179235,0.0041582803,0.0
3.565431,0.50201595,0.03368768,0.030246953,0.00906587,0.041194975,0.022739658,0.003771895,0.0028773057,0.004714252,0.009227659,2.915919,0.0031645799,0.0
3.5680218,1.7935784,0.008017834,0.01318634,0.009512332,0.020459209,0.00074496586,0.00043071122,0.0017745226,0.0049464125,0.009857122,2.9207253,0.0033748883,0.0
3.5691774,0.7026151,0.005342008,0.009536149,0.008465105,0.01616007,-0.0012819134,0.00022842585,0.0013189022,0.0044018542,0.008720992,2.9214368,0.0029851722,0.0
3.5733871,2.2452252,0.06532748,0.069768526,0.006669834,0.074577756,0.060518257,0.0064476556,0.0076023275,0.0034683133,0.0070297495,2.9079154,0.0024174533,0.0
3.5743783,0.9019692,0.0377016,0.016486432,0.00881191,0.04088425,0.013303781,0.005575749,5.980562e-05,0.0045821927,0.013790234,2.9170153,0.004727515,0.0
3.5810332,1.1000783,0.02603583,0.016003069,0.002928637,0.02682815,0.01521075,0.0034902813,0.0008817635,0.0015228911,0.0058087,2.918382,0.0019903837,0.0
3.5810332,1.1000783,0.04421794,0.05014534,0.010178398,0.05778274,0.03658054,0.004136328,0.0056774514,0.0052927667,0.0106011,2.9124968,0.0036398666,0.0
3.5881486,1.2940811,0.019185646,0.028736424,0.012377065,0.037227385,0.010694683,0.0012503464,0.003733548,0.006436073,0.013266351,2.91772,0.004546821,0.0
3.5881486,1.2940811,0.038018737,0.063072994,0.016126039,0.0709659,0.030125823,0.0019997156,0.008513823,0.008385539,0.02042004,2.9117398,0.0070130024,0.0
3.590689,1.9936649,0.025579967,0.037206218,0.010042388,0.042996626,0.019789558,0.0017534688,0.0047762934,0.005222041,0.011603534,2.9160483,0.003979198,0.0
3.590689,1.9936649,0.08609766,0.084559,0.0143897785,0.09973866,0.070917994,0.00907417,0.00867412,0.007482684,0.014410332,2.9039156,0.0049623796,0.0
3.590689,1.9936649,0.06565198,0.071082145,0.008217703,0.07702167,0.059712455,0.0064042527,0.007816095,0.004273205,0.008654609,2.907731,0.0029764134,0.0
3.590689,1.9936649,0.07376443,0.06448081,0.011013388,0.08107424,0.057171006,0.008395622,0.0059818816,0.005726961,0.011951616,2.907561,0.0041105296,0.0
3.590689,1.9936649,0.031425662,0.04260308,0.018881485,0.056705594,0.017323153,0.0023964301,0.0053025577,0.009818371,0.019691221,2.9147837,0.0067556375,0.0
3.590689,1.9936649,0.027422853,0.04313359,0.0126461275,0.05016551,0.020390935,0.0016265389,0.00571133,0.006575986,0.014887288,2.9151745,0.005106826,0.0
3.590689,1.9936649,0.05390206,0.06907978,0.007864672,0.07241996,0.050561883,0.0044219512,0.008368158,0.004089629,0.010929037,2.909278,0.0037566149,0.0
3.5917459,2.3362796,0.038092427,0.06263658,0.009243279,0.06572816,0.035000842,0.0020471683,0.008428646,0.0048065046,0.015363658,2.9117806,0.005276379,0.0
3.5917459,2.3362796,0.025551766,0.016675103,0.010511865,0.032523874,0.009702996,0.003349763,0.0010418309,0.005466169,0.011410439,2.9183607,0.00390988,0.0
3.5931065,2.4103658,0.0521342,0.07523211,0.0068113524,0.07709109,0.05027521,0.0036203195,0.009625775,0.0035419029,0.01340794,2.9087846,0.0046094647,0.0
3.5931065,2.4103658,0.03804236,0.063885055,0.011125166,0.06801453,0.033912882,0.0019406751,0.008659774,0.0057850857,0.017050825,2.911646,0.0058560777,0.0
3.5950136,2.6419537,0.059890028,0.039729405,0.016052946,0.068765186,0.030854248,0.007801091,0.002559329,0.008347532,0.01895547,2.9119055,0.0065096444,0.0
3.5973043,1.4907858,0.02643423,0.02919483,0.010111374,0.03801968,0.017609378,0.0025338328,0.0032515887,0.005257914,0.010205151,2.9168534,0.0034986848,0.0
3.6090477,2.0847194,0.016809909,0.032515623,0.008685199,0.036371738,0.012953794,0.00052318454,0.00460667,0.0045163026,0.011708972,2.9175622,0.0040132725,0.0
3.6090477,2.0847194,0.02885019,0.02966616,0.018987011,0.04824957,0.010266781,0.002936774,0.0031489257,0.009873245,0.018991394,2.9165287,0.006511643,0.0
3.6132157,1.6891814,0.020082977,0.03929421,0.006958216,0.04154965,0.017827537,0.0005901533,0.005585073,0.003618272,0.011861056,2.9164317,0.0040669753,0.0
3.6145754,2.4771452,0.060425896,0.06848289,0.010996748,0.07616581,0.052742977,0.005655847,0.007750665,0.0057183085,0.011711417,2.908611,0.0040264637,0.0
3.6166666,0.0,0.02270243,0.013781807,0.010414742,0.02957178,0.0069124578,0.003056861,0.00073749915,0.0054156655,0.01132966,2.9190066,0.003881341,0.0
3.6197867,0.20133299,0.02649127,0.025926018,0.010407934,0.036620412,0.015796874,0.002799181,0.002652216,0.005412125,0.010411769,2.9172146,0.0035690789,0.0
3.6197867,0.20133299,0.05451875,0.06724763,0.009707615,0.07249111,0.049275268,0.0046770973,0.007986604,0.0050479593,0.011607921,2.9094145,0.003989779,0.0
3.6216285,0.4023661,0.0336476,0.062064428,0.0007893997,0.06208634,0.03362569,0.0012828378,0.008671212,0.00041048782,0.014230326,2.912345,0.004886209,0.0
3.6216285,0.4023661,0.08503412,0.08373702,0.010767814,0.0951729,0.07359825,0.00894472,0.008607476,0.0055992627,0.010787323,2.9041276,0.0037144797,0.0
3.624622,0.60136586,0.03883894,0.022921572,0.0064784274,0.04114236,0.020618157,0.005280804,0.0011422883,0.0033687819,0.010262101,2.9161637,0.0035190415,0.0
3.624622,0.60136586,0.019494161,0.018809998,0.00941291,0.028571203,0.009732955,0.0020807572,0.0019028748,0.0048947125,0.009419125,2.918802,0.0032270516,0.0
3.625,2.6875,0.03384454,0.061036006,0.0026880049,0.061299182,0.03358137,0.0013988982,0.008468677,0.0013977624,0.013858907,2.9124384,0.004758524,0.0
3.6274064,2.1757736,0.06770864,0.07310157,0.006058465,0.077036545,0.06377368,0.006621049,0.008023211,0.0031504016,0.006631434,2.9072726,0.002280981,0.0
3.6274064,2.1757736,0.059396412,0.039333798,0.0049881265,0.06056816,0.038162045,0.0077421092,0.0025258309,0.0025938256,0.011203058,2.9120054,0.003847197,0.0
3.6283684,0.801965,0.0047668302,0.010866058,0.005194024,0.013839569,0.0017933194,2.0010573e-05,0.0016058095,0.0027008923,0.006023125,2.921352,0.0020617594,0.0
3.6283684,0.801965,0.07375889,0.046999954,0.008073267,0.076005936,0.04475291,0.009758121,0.0028007973,0.004198098,0.015626512,2.9095278,0.005370807,0.0
3.6350234,1.0000741,0.019549146,0.024348244,0.007812885,0.03012176,0.01377563,0.0016587814,0.0029065465,0.0040626996,0.008173065,2.9181728,0.0028007475,0.0
3.6350234,1.0000741,0.06980694,0.05548245,0.017635487,0.08167909,0.043610305,0.008377232,0.004652864,0.009170452,0.019034393,2.9090183,0.006543236,0.0
3.6358829,1.8892679,0.037702277,0.06163334,0.009577599,0.064994395,0.03434122,0.002054413,0.00827649,0.0049803513,0.0153265875,2.9119375,0.0052633644,0.0
3.6358829,1.8892679,0.018348344,0.04033198,0.006931098,0.04233478,0.01634554,0.00019350425,0.0059092483,0.0036041706,0.01299462,2.91651,0.0044555375,0.0
3.6360445,2.5439246,0.06313285,0.06824671,0.003793151,0.07026426,0.0611153,0.0061669354,0.007496537,0.0019724383,0.0045744795,2.9083333,0.001572887,0.0
3.639334,1.1970783,0.06557945,0.079175144,0.004512912,0.080536775,0.06421781,0.0057597975,0.0092946775,0.002346714,0.008159481,2.9068289,0.0028070041,0.0
3.639334,1.1970783,0.089380406,0.08465202,0.0040126108,0.09167351,0.08235891,0.0096643735,0.008434996,0.0020865574,0.0046572983,2.9035358,0.0016040092,0.0
3.645765,2.266828,0.03281456,0.017631687,0.0052995617,0.034481376,0.01596487,0.0045969775,0.00064943143,0.0027557719,0.0092582535,2.9174364,0.003173421,0.0
3.645765,2.266828,0.0764292,0.07116031,0.003366679,0.07806966,0.06951985,0.00835961,0.006989697,0.0017506729,0.0042749047,2.90651,0.0014708033,0.0
3.6492538,1.3880796,0.056930702,0.04650897,0.0026078622,0.057546847,0.045892827,0.0067336867,0.0040240376,0.0013560882,0.0058270097,2.911476,0.0020013938,0.0
3.6492538,1.3880796,0.07167856,0.048120853,0.0028909745,0.072028145,0.04777126,0.009292069,0.0031670674,0.0015033066,0.0121284425,2.9096358,0.004168371,0.0
3.6575136,2.6107037,0.04026259,0.040829346,0.0047115767,0.045266062,0.03582588,0.004143102,0.0042904583,0.0024500196,0.004720092,2.9139893,0.0016198041,0.0
3.6575136,2.6107037,0.07543102,0.051771287,0.016248103,0.08369957,0.04350273,0.009690285,0.0035387538,0.008449012,0.02009842,2.908803,0.0069095157,0.0
3.6584098,1.5847844,0.03288928,0.05990634,0.014402654,0.06614412,0.026651502,0.0013131542,0.008337589,0.0074893795,0.019746311,2.912673,0.0067794467,0.0
3.6584098,1.5847844,0.041548833,0.0602895,0.0142399855,0.06796558,0.033872753,0.0028593063,0.0077318787,0.0074047917,0.017046414,2.911656,0.005854543,0.0
3.6641238,2.3578825,0.040400214,0.04157842,0.008991105,0.0499997,0.031978935,0.0041097216,0.004416055,0.004675374,0.009010382,2.9138896,0.003092218,0.0
3.6641238,2.3578825,0.063818544,0.074565,0.0021493793,0.07497895,0.06340459,0.005798905,0.008592982,0.0011176772,0.005787179,2.9075456,0.0019904,0.0
3.6641238,2.3578825,0.053009916,0.07323509,0.005366248,0.07457069,0.051674314,0.0039354675,0.009194011,0.0027904487,0.01144819,2.9089108,0.0039355587,0.0
3.6641238,2.3578825,0.045246843,0.023097528,0.0044054547,0.046090912,0.022253457,0.006433318,0.0006744958,0.0022908363,0.011918727,2.9154232,0.004088164,0.0
3.6641238,2.3578825,0.018597182,0.03805978,0.010050043,0.042317815,0.014339143,0.00041602418,0.0054762987,0.005226022,0.013989336,2.9167378,0.004796227,0.0
3.6641238,2.3578825,0.023441229,0.045304883,0.0060270554,0.046856254,0.021889858,0.0007325225,0.0064170724,0.0031340686,0.012483198,2.915378,0.0042818454,0.0
3.6653645,2.0425782,0.0062999018,0.005424671,0.010858511,0.016729612,-0.0050050393,0.0007234577,0.00049589766,0.005646425,0.010867326,2.9217916,0.0037194048,0.0
3.6653645,2.0425782,0.08665096,0.07692611,0.010358085,0.09323114,0.07034594,0.009770237,0.007241776,0.0053862035,0.011442602,2.9047117,0.0039393245,0.0
3.6765602,0.10066649,0.07852971,0.059253734,0.0153527325,0.08701897,0.05076447,0.009670613,0.004658862,0.00798342,0.018127248,2.907613,0.0062344084,0.0
3.6765602,0.10066649,0.03201949,0.026187247,0.00666881,0.036381885,0.021824853,0.0037849408,0.0022685586,0.0034677808,0.007278516,2.9165635,0.0024955794,0.0
3.678402,0.3016996,0.042090006,0.048953895,0.014973132,0.06088336,0.030160543,0.0038419766,0.0056265877,0.007786028,0.01536141,2.91287,0.005273634,0.0
3.6808195,0.5017161,0.047468867,0.031292714,0.0061655184,0.049550872,0.029210705,0.0061985017,0.0019927018,0.0032060693,0.0101700835,2.9142516,0.0034897754,0.0
3.6810768,1.7848709,0.058676776,0.07941723,0.0109732095,0.084145114,0.053948894,0.004484629,0.009877145,0.0057060686,0.01509811,2.907578,0.0051926756,0.0
3.6810768,1.7848709,0.0034378795,0.005871733,0.00406665,0.008899633,0.00040997984,0.00016769882,0.00080050074,0.0021146578,0.0042448267,2.922063,0.0014526814,0.0
3.6837232,2.1336327,0.0048037115,0.0059513776,0.017359916,0.022746941,-0.011991853,0.00041006797,0.00070846116,0.009027155,0.017369397,2.9219005,0.0059445547,0.0
3.6838129,0.70071584,0.07378696,0.06723648,0.012309444,0.08324944,0.057774,0.008184779,0.006481656,0.00640091,0.012737721,2.9072485,0.0043813665,0.0
3.6838129,0.70071584,0.0063254284,0.0077159386,0.00578867,0.012850956,0.0011904109,0.0005493847,0.0009109173,0.0030101081,0.0058302726,2.921531,0.0019956224,0.0
3.6855927,2.4246619,0.0068133622,0.0071155964,0.010052978,0.017018594,-0.0030896347,0.0006850153,0.0007635962,0.005227548,0.010054114,2.9215436,0.0034413706,0.0
3.6855927,2.4246619,0.08628513,0.080869436,0.008206752,0.092219226,0.07493534,0.009396076,0.007987997,0.0042675105,0.008641943,2.9043095,0.0029755586,0.0
3.6875,2.65625,0.040071953,0.03836617,0.018102778,0.05734192,0.0210962,0.004300534,0.0038570298,0.0094134435,0.01812286,2.9142878,0.006218624,0.0
3.6890137,0.90006995,0.08728074,0.07588956,0.012087445,0.09494727,0.06822304,0.0099657085,0.0070040002,0.0062854704,0.013362117,2.9047575,0.00460008,0.0
3.6890137,0.90006995,0.04235778,0.05542058,0.011881628,0.06244766,0.035330705,0.0033863103,0.006782638,0.006178446,0.013558477,2.9121125,0.0046558906,0.0
3.6933243,1.0970743,0.042494882,0.07281415,0.007361943,0.07450719,0.040801838,0.0020545642,0.009937573,0.00382821,0.016852677,2.9101408,0.005791018,0.0
3.6958957,1.9714854,0.08543182,0.090978466,0.006931705,0.09567106,0.08073923,0.008452269,0.009894398,0.0036044861,0.007465914,2.9032683,0.0025715549,0.0
3.6958957,1.9714854,0.07788828,0.08299385,0.009033025,0.08982788,0.07105425,0.007702145,0.009029594,0.004697173,0.009386815,2.905015,0.003231245,0.0
3.7004395,1.291077,0.020466821,0.04714127,0.010831539,0.050985537,0.016622549,4.7942474e-05,0.006983298,0.0056323996,0.017181493,2.915506,0.005893143,0.0
3.702082,2.224687,0.040445887,0.01795001,0.009495253,0.043917865,0.014478032,0.00596105,0.000112122565,0.004937531,0.0147199165,2.916542,0.0050470443,0.0
3.7070618,2.4914412,0.043132827,0.042776987,0.007570986,0.050527982,0.03538183,0.004513569,0.00442105,0.0039369124,0.0075730756,2.9134474,0.002599352,0.0
3.7070618,2.4914412,0.03201033,0.021840628,0.0041320203,0.033477526,0.020373434,0.004122311,0.0014781882,0.0021486504,0.006552046,2.9170532,0.0022461182,0.0
3.7103593,1.4820782,0.0069158967,0.007376375,0.009462364,0.0166113,-0.0023190286,0.0006833359,0.0008030602,0.0049204286,0.0094651645,2.9215028,0.0032398272,0.0
3.7103593,1.4820782,0.014125003,0.012823265,0.0042947605,0.017817933,0.0091303345,0.0015705357,0.0012320838,0.0022332752,0.0043437993,2.9200792,0.0014875621,0.0
3.7204406,2.3157415,0.014053183,0.0071954974,0.012519614,0.023605006,-0.0023563262,0.00199643,0.0002134322,0.0065101986,0.012980666,2.9207203,0.004444337,0.0
3.7204406,2.3157415,0.044925082,0.060872544,0.011014049,0.06649622,0.0393014,0.0034283062,0.0075746453,0.005727305,0.013597412,2.9112105,0.004670707,0.0
3.726271,1.6804738,0.03180449,0.040426496,0.016369175,0.05304283,0.01918816,0.0026351504,0.004876871,0.008511971,0.016927335,2.9149861,0.005807004,0.0
3.726271,1.6804738,0.015282194,0.008042417,0.011383992,0.02360797,-0.0002833577,0.0021540506,0.00027170853,0.005919675,0.011945663,2.9204867,0.004090299,0.0
3.728531,2.5582206,0.04535411,0.04121109,0.008255182,0.05179372,0.034771476,0.0050399816,0.0039627976,0.004292694,0.008511122,2.9133737,0.0029213973,0.0
3.728531,2.5582206,0.06567213,0.06278077,0.00841575,0.07276547,0.055687428,0.0070554265,0.006303672,0.00437619,0.008539021,2.9086626,0.0029357208,0.0
3.7333333,0.0,0.05558401,0.07846997,0.010492341,0.082552165,0.051501814,0.0039956314,0.00994598,0.0054560164,0.015525175,2.9080324,0.0053387214,0.0
3.7333333,0.0,0.058264345,0.047927488,0.0075438917,0.062240474,0.043951355,0.006865766,0.004178183,0.0039228234,0.0091445595,2.9111662,0.0031412016,0.0
3.7333333,0.0,0.05839929,0.030348832,0.007085112,0.060087297,0.028660823,0.008261461,0.0009683424,0.0036842579,0.015713237,2.9131281,0.0053939396,0.0
3.7351751,0.2010331,0.042587787,0.046947993,0.005715526,0.050885085,0.038650695,0.0040890328,0.005222687,0.0029720734,0.006117195,2.9130397,0.0020999352,0.0
3.737017,0.4020662,0.05414464,0.053076185,0.0041607386,0.05780531,0.049415518,0.005714381,0.005436583,0.0021635839,0.0041948967,2.9110506,0.0014410251,0.0
3.737017,0.4020662,0.07439312,0.060869057,0.008265193,0.07830997,0.05695221,0.008791761,0.0052755037,0.0042978995,0.01067888,2.9078965,0.0036723728,0.0
3.7400103,0.601066,0.06678667,0.06156255,0.01244994,0.07689561,0.051453605,0.0073532937,0.005995023,0.0064739683,0.012721002,2.908674,0.0043734713,0.0
3.7400403,2.0914915,0.050492764,0.060244624,0.009361788,0.06592415,0.04481323,0.004490602,0.007026085,0.0048681293,0.010555461,2.910655,0.00362649,0.0
3.7400403,2.0914915,0.00070040766,0.0008920754,0.014976838,0.015773386,-0.014180902,5.7892303e-05,0.000107725915,0.007787955,0.014977144,2.9229312,0.0051240153,0.0
3.7410898,1.8670883,0.019791808,0.015119931,0.01364363,0.031298023,0.0036137141,0.0024227542,0.0012080661,0.007094687,0.013842154,2.9191835,0.00474179,0.0
3.7430038,0.8000658,0.036715932,0.06518109,0.010206959,0.068462744,0.03343428,0.001598174,0.008999115,0.005307618,0.017514233,2.9116492,0.0060152276,0.0
3.7430038,0.8000658,0.036598515,0.06611146,0.013239898,0.07118043,0.031529542,0.0015042354,0.0091776,0.0068847463,0.019825445,2.911558,0.0068092225,0.0
3.7430038,0.8000658,0.07618016,0.07121974,0.0071350033,0.08125374,0.066146165,0.008309647,0.0070199394,0.0037102015,0.007553786,2.9065313,0.0025989006,0.0
3.7430038,0.8000658,0.07020509,0.04736051,0.0045257458,0.07106902,0.046496585,0.009083206,0.003143615,0.0023533877,0.012286216,2.909887,0.004222231,0.0
3.7430038,0.8000658,0.0734408,0.068649866,0.008779635,0.080145895,0.061944768,0.008011535,0.006765892,0.0045654094,0.009100564,2.9071286,0.0031304304,0.0
3.7430038,0.8000658,0.056596562,0.056216188,0.011821625,0.06822953,0.04458322,0.0059157107,0.0058168136,0.0061472445,0.011823153,2.9104216,0.004062351,0.0
3.7473145,0.9970701,0.032296363,0.052161664,0.005219104,0.053449377,0.031008646,0.0018093277,0.006974306,0.0027139336,0.011220366,2.9136107,0.0038510174,0.0
3.7480927,2.3934119,0.07570545,0.080536656,0.013633207,0.09196661,0.064275496,0.0074965307,0.008752645,0.007089267,0.0138455555,2.905537,0.004765231,0.0
3.7480927,2.3934119,0.05716417,0.025148278,0.003514985,0.057545535,0.024766916,0.0084423125,0.00011818103,0.001827792,0.01638931,2.9138522,0.00562462,0.0
3.75,2.625,0.07287769,0.045623504,0.013029832,0.07810462,0.04039657,0.009705105,0.0026190174,0.0067755124,0.018854026,2.9097817,0.006479533,0.0
3.75,2.625,0.013573106,0.021183282,0.006020633,0.024500463,0.010255925,0.0008180091,0.0027966548,0.0031307288,0.007122269,2.919201,0.0024398009,0.0
3.75,2.625,0.018923327,0.013166824,0.010794121,0.027216349,0.004873801,0.0024170326,0.0009203426,0.0056129424,0.011171274,2.9195008,0.0038264329,0.0
3.751625,1.1940743,0.0022742543,0.0018481376,0.0048455494,0.006911427,-0.0027890352,0.0002697595,0.00015896918,0.0025196855,0.004850231,2.9226465,0.0016595339,0.0
3.751625,1.1940743,0.028488802,0.034520455,0.008527341,0.040549558,0.022459697,0.0024923661,0.0040605958,0.0044342172,0.00904493,2.9160233,0.0031018031,0.0
3.758399,2.182546,0.066976644,0.032666814,0.0049900385,0.06768766,0.031955793,0.009641736,0.00072118203,0.0025948198,0.017865933,2.911903,0.0061354837,0.0
3.761545,1.3850756,0.07089884,0.07124238,0.0063013854,0.07737434,0.064766884,0.0073466823,0.007436002,0.0032767202,0.0063037276,2.9071229,0.0021683732,0.0
3.7695618,2.4601912,0.030836802,0.055567745,0.009797019,0.05897841,0.027426137,0.0012780137,0.0077080578,0.0050944495,0.015776135,2.9133918,0.0054150405,0.0
3.7705715,2.0203986,0.07014769,0.039139006,0.010213414,0.073209405,0.03607729,0.009714037,0.0016517785,0.005310975,0.018566057,2.910818,0.0063782954,0.0
3.7714648,1.5760767,0.06077086,0.037646364,0.0029242416,0.06113492,0.037282303,0.008123879,0.0021115108,0.0015206055,0.011926308,2.9120407,0.0040955157,0.0
3.7714648,1.5760767,0.06879097,0.0556459,0.009340661,0.073639736,0.05079713,0.008179575,0.004761858,0.004857143,0.011421302,2.9091141,0.0039260415,0.0
3.7714648,1.5760767,0.053904187,0.073489286,0.0030228528,0.07394523,0.053448237,0.0040783966,0.009170523,0.0015718833,0.010248497,2.9087815,0.0035232955,0.0
3.7714648,1.5760767,0.029116558,0.033234976,0.0015320864,0.033742405,0.028609129,0.0027068849,0.0037776737,0.0007966849,0.0025666384,2.9160972,0.0008801622,0.0
3.7714648,1.5760767,0.055303022,0.06436019,0.0019874212,0.0647771,0.05488611,0.005045055,0.0073999166,0.001033459,0.0049454942,2.909651,0.0016996864,0.0
3.7714648,1.5760767,0.034010787,0.06676235,0.008184281,0.06869364,0.032079503,0.0009824992,0.009497905,0.0042558257,0.018307067,2.9117758,0.0062872516,0.0
3.7767577,2.2736003,0.0682381,0.07590642,0.013742748,0.08633984,0.057804678,0.006498634,0.008492394,0.007146228,0.014267581,2.9068975,0.0049081813,0.0
3.7767577,2.2736003,0.038382344,0.024659619,0.010684463,0.044218857,0.018823106,0.005062136,0.0014942273,0.0055559203,0.0126978755,2.9160197,0.004354523,0.0
3.7862837,1.7626913,0.065673344,0.04811932,0.009889407,0.070118904,0.043673765,0.00819924,0.003635195,0.0051424913,0.01322257,2.9103115,0.004543352,0.0
3.791031,2.5269706,0.047561005,0.07148455,0.008950563,0.07446255,0.04458301,0.0030803077,0.009300428,0.0046542925,0.014939768,2.9097204,0.0051344344,0.0
3.7919483,0.100366615,0.085436806,0.08089113,0.011837456,0.095217645,0.07111029,0.009239988,0.008058115,0.006155477,0.012053676,2.9044025,0.0041501396,0.0
3.7919483,0.100366615,0.07082476,0.0620969,0.006013357,0.0738908,0.05903087,0.008046547,0.0057773036,0.0031269453,0.007429963,2.9081597,0.0025548676,0.0
3.79379,0.3013997,0.039070554,0.05956179,0.009653041,0.063392885,0.035239458,0.002465021,0.007792741,0.005019581,0.0140767135,2.9120166,0.0048340084,0.0
3.796208,0.50141615,0.021331005,0.03023775,0.014464129,0.040918563,0.010650192,0.001523698,0.0038394516,0.007521346,0.015134186,2.91731,0.005187719,0.0
3.7992013,0.70041597,0.026490608,0.05389784,0.0078068553,0.055965595,0.024422856,0.0006172591,0.0077431384,0.0040595643,0.01577137,2.9140685,0.0054121483,0.0
3.7992013,0.70041597,0.076411314,0.071576126,0.010575173,0.08484172,0.06314572,0.00832392,0.0070667714,0.0054990896,0.010848001,2.9064653,0.0037323688,0.0
3.8011026,1.9493058,0.05373498,0.03255071,0.012676002,0.059661757,0.026623938,0.0072408104,0.0017329003,0.0065915207,0.01651891,2.9134052,0.0056699663,0.0
3.8011026,1.9493058,0.085901834,0.07575556,0.011873266,0.09374037,0.06791703,0.009725198,0.007087168,0.006174098,0.01291167,2.9049277,0.004444747,0.0
3.8013046,0.8970659,0.07790709,0.085535586,0.0049517215,0.08797178,0.075470895,0.0075073135,0.009490723,0.002574895,0.006250441,2.904727,0.002151817,0.0
3.8013046,0.8970659,0.056029815,0.030921452,0.008072616,0.05840127,0.028549999,0.007785552,0.0012573781,0.0041977596,0.014925636,2.9133303,0.0051232213,0.0
3.8044097,2.351271,0.06673432,0.05623253,0.004988986,0.06872649,0.05424037,0.007759508,0.0050290427,0.0025942726,0.0072430596,2.9092796,0.0024896401,0.0
3.8056152,1.0940702,0.039221272,0.023130618,0.0029901247,0.039758958,0.022592932,0.005334082,0.0011505133,0.0015548647,0.008583013,2.9160972,0.002943322,0.0
3.8125,2.59375,0.05117213,0.036491413,0.018151749,0.06341153,0.024252018,0.0064669964,0.0026500106,0.009438909,0.019579753,2.9132502,0.006720931,0.0
3.8127306,1.288073,0.07953171,0.0580667,0.0025639927,0.07983373,0.057764683,0.009945567,0.004364665,0.0013332762,0.011034524,2.9076338,0.0037950184,0.0
3.814716,2.140405,0.03273716,0.032712657,0.011664201,0.044389114,0.021060703,0.003406575,0.0034002047,0.0060653836,0.011664205,2.9157488,0.004000415,0.0
3.814716,2.140405,0.0509578,0.0731096,0.008860596,0.076217696,0.047849704,0.00357177,0.0093312375,0.00460751,0.014183996,2.9091556,0.0048756404,0.0
3.8226504,1.4790741,0.058728743,0.07669616,0.01598648,0.08605024,0.04937466,0.0047063306,0.009377858,0.008312969,0.018337792,2.9078782,0.006306245,0.0
3.8226504,1.4790741,0.03600982,0.026353912,0.017759224,0.049585648,0.012778083,0.0044981814,0.0019876459,0.009234795,0.018403783,2.916096,0.0063111037,0.0
3.8314779,1.6582942,0.029538795,0.04318968,0.013995621,0.051935494,0.020792976,0.0020072656,0.0055564945,0.0072777225,0.015571259,2.91493,0.0053418977,0.0
3.8314779,1.6582942,0.037872605,0.051126793,0.011289031,0.057590175,0.031409223,0.0029049234,0.0063510123,0.0058702957,0.013090476,2.9131,0.0044936584,0.0
3.8320618,2.4289412,0.040578414,0.04457947,0.0064804535,0.049361154,0.03579673,0.003908072,0.0049483464,0.0033698354,0.0067822114,2.913532,0.0023278315,0.0
3.8320618,2.4289412,0.08517582,0.073946506,0.008049294,0.089375205,0.06974711,0.0097341705,0.0068145487,0.004185633,0.009814046,2.9052129,0.0033780816,0.0
3.8330748,2.2314594,0.04602212,0.021594247,0.009499617,0.04928148,0.018334884,0.006691674,0.00034042745,0.0049398,0.015473299,2.9155052,0.0053072446,0.0
3.8330748,2.2314594,0.046613798,0.031921405,0.0064898795,0.049069904,0.029465297,0.0059938408,0.002173819,0.003374737,0.009802303,2.914277,0.0033635455,0.0
3.8452473,2.0693119,0.020766534,0.045945436,0.009834583,0.049331382,0.017380588,0.00019576515,0.0067422786,0.0051139826,0.015975397,2.9156067,0.00547927,0.0
3.8462968,1.8449087,0.0013986834,0.001010492,0.008811552,0.010018277,-0.007609102,0.00017574198,7.4812226e-05,0.0045820065,0.008813689,2.9228392,0.0030154549,0.0
3.85,0.0,0.04683723,0.053179,0.011947262,0.062369004,0.037647225,0.0043764133,0.006025273,0.006212576,0.012360889,2.911861,0.0042450135,0.0
3.8505635,0.20073323,0.02551014,0.015201148,0.010198645,0.031782858,0.00892843,0.0034571558,0.0007768176,0.005303295,0.011427214,2.9185312,0.0039153993,0.0
3.8505635,0.20073323,0.06414437,0.06817103,0.008778293,0.075163916,0.05715148,0.0063569336,0.007403866,0.004564712,0.009006217,2.908228,0.003096806,0.0
3.8524053,0.40176633,0.07319179,0.060638994,0.0031657089,0.07394496,0.05988582,0.008591063,0.005327336,0.0016461684,0.0070295725,2.9080575,0.0024172743,0.0
3.8524053,0.40176633,0.01406191,0.024816763,0.0125914,0.033130944,0.00574773,0.00062356,0.0034198214,0.0065475274,0.013691607,2.9187374,0.004690935,0.0
3.853531,2.4957206,0.03395771,0.024268232,0.00941468,0.039701063,0.018524878,0.0042873803,0.0017681167,0.004895633,0.010588093,2.9165614,0.0036303343,0.0
3.8553987,0.6007661,0.022607349,0.03973104,0.008466842,0.043210484,0.019127907,0.0010155159,0.0054676756,0.004402757,0.012041288,2.9160986,0.004129246,0.0
3.8553987,0.6007661,0.06380773,0.04046316,0.008589106,0.06662734,0.03764355,0.008456879,0.0023872918,0.0044663344,0.014491893,2.9113824,0.0049776672,0.0
3.8563185,0.80017304,0.052470822,0.029887486,0.007808784,0.054907914,0.027450394,0.007218465,0.001346798,0.0040605674,0.01372876,2.913847,0.0047115586,0.0
3.8563185,0.80017304,0.08756129,0.09005347,0.011720028,0.10059346,0.077021286,0.008911982,0.00955995,0.006094414,0.011786088,2.903133,0.0040597827,0.0
3.8596053,0.994066,0.06907527,0.070381016,0.009507612,0.079258144,0.060198143,0.0070819794,0.007421472,0.004943958,0.00953,2.907425,0.0032778147,0.0
3.8596053,0.994066,0.020627912,0.03415784,0.008939525,0.038603578,0.016182173,0.0010899685,0.0046077487,0.0046485527,0.011210702,2.916948,0.0038432986,0.0
3.8607268,2.3091297,0.05438593,0.032994207,0.011101334,0.059105683,0.028274458,0.0073246905,0.0017628423,0.0057726935,0.015415613,2.9132822,0.005291493,0.0
3.863916,1.1910702,0.07401867,0.049010977,0.00871035,0.076753475,0.046276174,0.009648542,0.0031465404,0.0045293816,0.01523865,2.9092724,0.0052379593,0.0
3.863916,1.1910702,0.046924602,0.048564885,0.01500863,0.06277577,0.032713722,0.004752216,0.005178689,0.007804487,0.015031023,2.91237,0.005161097,0.0
3.873836,1.3820715,0.07485564,0.071616404,0.005678289,0.079140775,0.06733126,0.008037645,0.0071954443,0.00295271,0.0059047565,2.9066358,0.0020314746,0.0
3.873836,1.3820715,0.018948166,0.010109099,0.01519636,0.030354612,-0.0012973472,0.002660056,0.00036189886,0.007902106,0.01582598,2.919842,0.0054201493,0.0
3.875,2.5625,0.04342719,0.03293231,0.010062283,0.049528107,0.026831396,0.0053350283,0.0026063588,0.0052323868,0.011348356,2.9145217,0.0038937284,0.0
3.8757784,1.998219,0.033064745,0.024768181,0.004305045,0.034894895,0.022938032,0.004085865,0.0019287585,0.0022386233,0.0059784316,2.9166055,0.002049791,0.0
3.87962,1.5717456,0.035301223,0.062154453,0.00618347,0.0635099,0.03394578,0.0015767746,0.008558614,0.0032154042,0.014782058,2.912149,0.0050759967,0.0
3.87962,1.5717456,0.05169269,0.07205957,0.0033895273,0.07260886,0.051143408,0.0037874228,0.009082811,0.001762554,0.010732725,2.9091911,0.0036892472,0.0
3.8883789,2.3868003,0.039679497,0.05020549,0.007746753,0.054307926,0.035577063,0.0033056396,0.006042398,0.004028311,0.009365432,2.9130003,0.0032150466,0.0
3.889392,2.1893182,0.0343522,0.04498369,0.014044964,0.054685205,0.02465068,0.0027433718,0.005507559,0.0073033804,0.015017263,2.914187,0.005153157,0.0
3.889392,2.1893182,0.06313787,0.050021097,0.009000746,0.06771617,0.045442794,0.007589445,0.0041790856,0.004680387,0.011136686,2.9103827,0.0038265367,0.0
3.889392,2.1893182,0.08362043,0.07050944,0.013604763,0.09216672,0.06196314,0.009719181,0.0063103233,0.007074476,0.01510179,2.9057744,0.0051971655,0.0
3.889392,2.1893182,0.018293772,0.034724932,0.017773878,0.04609012,0.0069285836,0.00062092155,0.0048930226,0.009242415,0.019580767,2.917147,0.0067123002,0.0
3.889392,2.1893182,0.075029224,0.063488014,0.01015372,0.080937564,0.057579663,0.008703252,0.005702538,0.005279934,0.011678951,2.9075305,0.004016794,0.0
3.8914907,1.7405117,0.037064753,0.03276618,0.009921602,0.045067195,0.024763737,0.004190023,0.003072393,0.0051592328,0.010151729,2.915256,0.003482277,0.0
3.8914907,1.7405117,0.008815422,0.0062377043,0.0074848463,0.015121566,-6.844057e-05,0.0011178657,0.00044765917,0.0038921197,0.0075950036,2.9214172,0.0025997667,0.0
3.9063096,1.9271262,0.018741004,0.025717542,0.0053644427,0.028628122,0.015830424,0.0014048942,0.0032187938,0.00278951,0.006398849,2.9181097,0.0021928062,0.0
3.9063096,1.9271262,0.054144137,0.055645544,0.012120846,0.067038916,0.042750772,0.0055138795,0.0059042457,0.006302839,0.012144072,2.9107616,0.0041721286,0.0
3.908615,0.100366615,0.030397268,0.062369,0.010162485,0.06532578,0.027440485,0.0006675205,0.00898017,0.0052844915,0.018942649,2.9126763,0.00650352,0.0
3.9091785,0.30109984,0.04062548,0.028032312,0.014805618,0.050417814,0.018239979,0.005207316,0.0019330933,0.0076989206,0.016088918,2.9153879,0.00551862,0.0
3.9091785,0.30109984,0.050980885,0.026607994,0.012053273,0.055934764,0.021654112,0.007203097,0.0008661454,0.0062677013,0.017140325,2.9143834,0.005881287,0.0
3.911596,0.5011163,0.010203418,0.008357628,0.013356142,0.022668513,-0.004107466,0.0012051271,0.0007252215,0.006945193,0.013387989,2.9210227,0.0045833224,0.0
3.911596,0.5011163,0.07435112,0.06691034,0.009948053,0.0812517,0.060009755,0.008312896,0.006378294,0.0051729875,0.010620974,2.9072218,0.003653307,0.0
3.9125159,0.7005232,0.026356116,0.029852033,0.009736724,0.037996452,0.018211696,0.0024683543,0.0033772923,0.005063096,0.009892378,2.916788,0.0033915313,0.0
3.9146192,0.89717317,0.061129827,0.026572526,0.010658637,0.06415286,0.023549492,0.00905297,6.8072826e-05,0.0055424906,0.020301685,2.913246,0.0069687506,0.0
3.916031,2.4644706,0.017751455,0.021531558,0.003496025,0.023615735,0.01566728,0.0015513032,0.0025341297,0.0018179328,0.0039742272,2.9186919,0.0013616467,0.0
3.916031,2.4644706,0.03222245,0.0322356,0.008313514,0.040542543,0.023915507,0.0033501084,0.0033535277,0.004323027,0.008313518,2.9158602,0.0028511374,0.0
3.917044,2.2669888,0.04120032,0.0567483,0.0067691137,0.05928236,0.038666267,0.0030720904,0.007114565,0.0035199388,0.010308046,2.9120934,0.0035397373,0.0
3.917044,2.2669888,0.0048882635,0.007528169,0.011100428,0.017386846,-0.004970414,0.00030246668,0.0009888421,0.0057722223,0.01117863,2.9217136,0.0038260529,0.0
3.9179063,1.0910661,0.06706902,0.0698671,0.0063817427,0.07500135,0.06193476,0.006756926,0.0074844277,0.0033185058,0.006533295,2.9077082,0.0022468881,0.0
3.9179063,1.0910661,0.0732144,0.06525425,0.0085614165,0.078675665,0.059792988,0.008235188,0.0061655496,0.004451936,0.0094413385,2.907536,0.0032471956,0.0
3.919923,2.1182253,0.044537153,0.06562479,0.016002825,0.074245065,0.03591688,0.0029870283,0.008469812,0.008321468,0.019164093,2.9107196,0.0065839705,0.0
3.919923,2.1182253,0.051449068,0.023832098,0.009715252,0.054524314,0.020756852,0.007504826,0.000324414,0.0050519304,0.01688373,2.914643,0.0057927268,0.0
3.9250214,1.2850689,0.03970632,0.05841753,0.006381649,0.0603868,0.03773705,0.0026699821,0.0075348965,0.0033184572,0.011324875,2.9120736,0.0038889383,0.0
3.9250214,1.2850689,0.083140075,0.0884274,0.004247409,0.09078668,0.08078079,0.008234155,0.00960886,0.0022086524,0.0050029457,2.9038131,0.0017228883,0.0
3.9308057,1.474743,0.07650398,0.06501514,0.007565474,0.08025876,0.061260357,0.008852541,0.0058654444,0.0039340463,0.0094992,2.9071927,0.003267482,0.0
3.9375,2.53125,0.092998974,0.089989476,0.0062893606,0.09796109,0.08502736,0.009906633,0.009124164,0.0032704673,0.0064668655,2.9025285,0.002228011,0.0
3.9396331,1.6539631,0.06817769,0.057341825,0.0005735281,0.068207964,0.05731155,0.007935677,0.0051183514,0.0002982346,0.0054482073,2.9089923,0.0018728847,0.0
3.944696,2.344659,0.08305151,0.088606045,0.0049995496,0.091547936,0.080109626,0.0082041025,0.00964828,0.0025997655,0.005719155,2.9038029,0.0019695398,0.0
3.944696,2.344659,0.006902133,0.010902158,0.014680613,0.023718368,-0.005914077,0.00040581982,0.0014458261,0.007633918,0.014816223,2.9211078,0.005072125,0.0
3.9504542,2.0471325,0.07216108,0.053483482,0.008339716,0.07534283,0.050301738,0.008961604,0.0041054287,0.004336652,0.012520544,2.9089782,0.004304104,0.0
3.9504542,2.0471325,0.034886118,0.03452953,0.0034499692,0.038162395,0.03125325,0.0036559696,0.0035632567,0.0017939839,0.0034545735,2.9153028,0.0011849793,0.0
3.9515038,1.8227291,0.088230245,0.08053077,0.009262802,0.09441146,0.07434955,0.009776503,0.0077746403,0.0048166565,0.010030955,2.9041288,0.0034540324,0.0
3.9515038,1.8227291,0.072816454,0.061884563,0.012556013,0.08104467,0.053656347,0.008425598,0.005583306,0.006529126,0.01369416,2.9079597,0.0047091986,0.0
3.9622,2.1895328,0.0150313005,0.023378486,0.016156195,0.03589146,0.002518326,0.0009121746,0.0030824426,0.008401221,0.016686566,2.91879,0.0057169464,0.0
3.9622,2.1895328,0.059739176,0.057271138,0.012412154,0.0709785,0.04603181,0.00640538,0.0057636905,0.0064543197,0.012473345,2.9099495,0.004286447,0.0
3.9666667,0.0,0.05216807,0.036107965,0.0027928194,0.052639876,0.03563616,0.006678167,0.0025025397,0.001452266,0.0085018575,2.9131813,0.00291841,0.0
3.96723,0.20073323,0.04715241,0.054202594,0.01444741,0.06554875,0.035806254,0.004353936,0.006186983,0.0075126523,0.014871247,2.9117103,0.0051073926,0.0
3.9677935,0.40146646,0.040255338,0.07065984,0.015610105,0.07724712,0.033668056,0.0018150031,0.009720174,0.008117254,0.021789532,2.910635,0.007486178,0.0
3.9677935,0.40146646,0.07436993,0.06400397,0.003793339,0.07560977,0.06276412,0.008543017,0.005847866,0.001972536,0.006422825,2.9075465,0.002209019,0.0
3.9677935,0.40146646,0.06488919,0.080083504,0.007865037,0.08342141,0.061551288,0.0055633187,0.009513839,0.004089819,0.010935061,2.9068043,0.003761884,0.0
3.9677935,0.40146646,0.024411017,0.034094103,0.008876322,0.039363425,0.019141693,0.0017834648,0.0043010665,0.004615687,0.010110866,2.91653,0.0034667454,0.0
3.9677935,0.40146646,0.031833902,0.06547156,0.009830169,0.06813362,0.029171837,0.00068698864,0.009432778,0.005111688,0.019480892,2.9121659,0.0066894856,0.0
3.9677935,0.40146646,0.029600507,0.038288034,0.009958372,0.044808775,0.023079768,0.002400825,0.004659582,0.0051783533,0.010864504,2.9154744,0.003726496,0.0
3.9687133,0.60087335,0.071979344,0.057498526,0.010653716,0.077620134,0.05185774,0.008615355,0.0048503415,0.0055399314,0.012881197,2.9085472,0.004428739,0.0
3.969633,0.8002803,0.027151722,0.03360486,0.013605308,0.044360965,0.016395617,0.0023204342,0.0039982493,0.0070747593,0.013982674,2.9162767,0.004794701,0.0
3.969633,0.8002803,0.045343533,0.06712395,0.005252797,0.06832459,0.0441429,0.003016854,0.0086797625,0.0027314543,0.012090845,2.9104605,0.0041542724,0.0
3.972348,2.4223297,0.040618226,0.06556243,0.01708797,0.07424575,0.031934902,0.0022786472,0.008764139,0.008885743,0.021155424,2.9111676,0.0072669894,0.0
3.972348,2.4223297,0.06737562,0.035851475,0.0029624123,0.06765159,0.0355755,0.009465948,0.001269669,0.0015404542,0.016038045,2.9114997,0.005508517,0.0
3.97292,0.9941732,0.022719128,0.017979017,0.016198836,0.036720373,0.0039777737,0.0027325177,0.001500089,0.008423394,0.016371299,2.9185326,0.005609428,0.0
3.976207,1.1880661,0.02974712,0.05680641,0.0013975708,0.056878403,0.029675128,0.0009830752,0.008018491,0.0007267368,0.013601637,2.9133751,0.0046686875,0.0
3.976207,1.1880661,0.053518604,0.07287229,0.010452378,0.07743951,0.048951376,0.004056347,0.009088304,0.005435236,0.014244067,2.9088943,0.004896729,0.0
3.976207,1.1880661,0.028075064,0.031436693,0.012647608,0.042514686,0.016997073,0.002657599,0.0035316225,0.0065767555,0.012758806,2.9164166,0.004374823,0.0
3.976207,1.1880661,0.046112224,0.033221263,0.0057679215,0.048316203,0.031017283,0.005801165,0.0024495162,0.0029993188,0.00864946,2.9141872,0.0029680524,0.0
3.976207,1.1880661,0.03436995,0.031166846,0.010280986,0.04317338,0.022363417,0.0038243167,0.0029915094,0.0053461124,0.010404982,2.915739,0.0035685573,0.0
3.976207,1.1880661,0.058552604,0.034821507,0.009994582,0.062201016,0.031173097,0.007940495,0.0017704108,0.0051971823,0.015513959,2.912608,0.005326484,0.0
3.9809854,1.9760394,0.029017465,0.015968628,0.015352607,0.03917449,0.005811602,0.004035625,0.00064292795,0.007983355,0.016681444,2.9180505,0.00571664,0.0
3.9809854,1.9760394,0.08358539,0.072226174,0.010924846,0.09021879,0.06559277,0.009578899,0.0066255024,0.005680919,0.012313008,2.9055853,0.004237703,0.0
3.9819913,1.3777404,0.013125607,0.021390263,0.0070236586,0.025407039,0.009108829,0.0007204198,0.0028692302,0.003652302,0.008149104,2.919228,0.002791527,0.0
3.9877756,1.5674145,0.0581691,0.048393734,0.0024370158,0.058742967,0.04781987,0.006812064,0.0042704693,0.0012672481,0.0054615475,2.9111245,0.0018760955,0.0
3.9877756,1.5674145,0.060959656,0.055333044,0.006879969,0.065579295,0.050713405,0.0067786793,0.0053157597,0.0035775835,0.007432945,2.9100301,0.0025542502,0.0
3.989852,2.267203,0.075925864,0.068531536,0.005809871,0.07911518,0.06534222,0.008473047,0.0065505207,0.0030211327,0.0068864822,2.9068623,0.0023690432,0.0
3.992731,2.11844,0.029888643,0.05818236,0.013730057,0.063749656,0.024321344,0.00090150867,0.008257874,0.0071396288,0.019714156,2.9132044,0.0067671724,0.0
3.999646,1.7361805,0.060558517,0.04018085,0.0077934354,0.06319739,0.03754198,0.007887542,0.0025893503,0.004052586,0.012827704,2.9117796,0.0044054515,0.0
4.0,2.5,0.07615093,0.057903465,0.001751003,0.07631744,0.05773696,0.009342997,0.0045986576,0.0009105215,0.009290239,2.9080324,0.003194682,0.0
4.0,2.5,0.063495964,0.0726815,0.0072192685,0.0766451,0.059532367,0.005887108,0.008275347,0.0037540193,0.008556366,2.9077935,0.002942563,0.0
4.0,2.5,0.07181171,0.04793709,0.0028071136,0.072137326,0.047611475,0.009330637,0.003123237,0.0014596989,0.0122629255,2.9096415,0.004214583,0.0
4.0,2.5,0.023029441,0.043056697,0.0056842356,0.04455755,0.021528587,0.0008329355,0.006040022,0.0029558023,0.011514481,2.915677,0.003949162,0.0
4.0115166,1.9049466,0.06420228,0.06702124,0.01101067,0.07671228,0.05451125,0.006457157,0.007190088,0.005725548,0.011100516,2.9083507,0.0038167734,0.0
4.0115166,1.9049466,0.0340215,0.05035501,0.011186622,0.05603876,0.028337754,0.002264222,0.006510934,0.005817043,0.013850503,2.91362,0.0047537093,0.0
4.0115166,1.9049466,0.08578699,0.086813875,0.0069919326,0.09331119,0.079289675,0.008841748,0.009108739,0.0036358046,0.007010758,2.9036968,0.002414425,0.0
4.0115166,1.9049466,0.014954091,0.023357531,0.00410812,0.02503213,0.013279494,0.0008997569,0.0030846512,0.0021362223,0.0058763176,2.918801,0.0020132642,0.0
4.0115166,1.9049466,0.07783965,0.08394361,0.0065610358,0.08812778,0.073655486,0.007619214,0.009206243,0.0034117382,0.0072361454,2.9049137,0.002491002,0.0
4.0115166,1.9049466,0.085173085,0.083435655,0.012008635,0.09634439,0.07226435,0.008993519,0.008541787,0.00624449,0.012040019,2.904146,0.004145804,0.0
4.0175037,2.3448737,0.017547144,0.028263124,0.008152779,0.032660946,0.013149322,0.0009890563,0.0037752108,0.0042394446,0.009755813,2.9179578,0.00334337,0.0
4.023262,2.0473468,0.059089296,0.04493475,0.006763427,0.061801393,0.042222653,0.0072493404,0.0035691587,0.0035169818,0.00978937,2.91141,0.0033624154,0.0
4.024911,0.50122356,0.09372521,0.09360756,0.011420587,0.10508713,0.08224565,0.009756597,0.009726008,0.0059387046,0.011420742,2.90204,0.0039354186,0.0
4.024911,0.50122356,0.040074002,0.057474848,0.009375998,0.06156531,0.03598354,0.0028104293,0.0073346496,0.0048755184,0.012790885,2.9121385,0.0043922653,0.0
4.025282,0.100366615,0.021101149,0.04385585,0.007472529,0.04609036,0.01886664,0.00041965238,0.0063358746,0.0038857148,0.013611861,2.9158041,0.004668304,0.0
4.0258303,0.7006305,0.019736532,0.016551785,0.00424765,0.022680476,0.013607841,0.0023010094,0.0014729752,0.0022087777,0.0045363177,2.9190288,0.0015540504,0.0
4.025845,0.30109984,0.045431197,0.020365331,0.0074689784,0.047487985,0.018308539,0.0066799805,0.00016285706,0.0038838685,0.014589723,2.9157097,0.0050038327,0.0
4.025845,0.30109984,0.06331464,0.07149236,0.0063158693,0.07492739,0.0598796,0.005946859,0.008073066,0.0032842518,0.0075238943,2.9079478,0.0025873554,0.0
4.027934,0.8972804,0.077901654,0.06348251,0.002576827,0.078348316,0.06303584,0.009226465,0.005477486,0.0013399499,0.007656239,2.907208,0.0026335367,0.0
4.031221,1.0911733,0.055024683,0.061597336,0.009885062,0.06872803,0.047893982,0.0052098995,0.006918789,0.005140232,0.010417024,2.9099932,0.0035797416,0.0
4.031221,1.0911733,0.026138747,0.013558516,0.008280598,0.030247375,0.009449889,0.0036996873,0.00042882742,0.0043059103,0.010398744,2.9186454,0.0035628665,0.0
4.033177,1.2807378,0.012206864,0.015207492,0.014983724,0.028765827,-0.001351472,0.0010354646,0.0018156279,0.0077915355,0.01505865,2.9200268,0.0051570246,0.0
4.033177,1.2807378,0.042774234,0.028742416,0.013953746,0.05137658,0.020140065,0.005543001,0.0018947292,0.007255947,0.015618258,2.9150665,0.0053577707,0.0
4.035008,2.1897473,0.02672104,0.019541489,0.0021020046,0.027291182,0.018971346,0.0033389926,0.0014723097,0.0010930423,0.004159918,2.9179068,0.0014256515,0.0
4.035008,2.1897473,0.079329066,0.08826498,0.007935488,0.09290387,0.07469018,0.0075532203,0.009876558,0.0041264533,0.009106845,2.90426,0.003135685,0.0
4.038961,1.4704119,0.048431557,0.027257094,0.0046048784,0.049389645,0.026299007,0.0066884896,0.0011831291,0.0023945365,0.011545319,2.914597,0.003961206,0.0
4.045156,2.422544,0.06831955,0.037896257,0.006426266,0.069621265,0.03659454,0.00947825,0.001568193,0.003341658,0.016513363,2.9111636,0.005672427,0.0
4.045156,2.422544,0.05506062,0.031899873,0.006732671,0.05687554,0.030084953,0.0075328425,0.0015110477,0.0035009887,0.013395295,2.9133294,0.0045979335,0.0
4.0477886,1.649632,0.012796838,0.01867666,0.009438139,0.025622169,0.0058513265,0.00087224477,0.0024009985,0.004907832,0.009885421,2.9195702,0.0033859166,0.0
4.0537934,1.976254,0.056717947,0.030448055,0.0062579657,0.058132537,0.029033467,0.007947717,0.0011175458,0.003254142,0.014549535,2.9133062,0.004994166,0.0
4.0537934,1.976254,0.08140352,0.08747765,0.0067826705,0.09187217,0.07700901,0.007992185,0.0095714545,0.0035269884,0.0074315816,2.9041152,0.0025589832,0.0
4.059659,1.818398,0.030735038,0.027613102,0.014341949,0.043600716,0.014747425,0.0034399547,0.0026282512,0.0074578123,0.014426645,2.9165475,0.0049464805,0.0
4.059659,1.818398,0.075312704,0.056351874,0.016277255,0.08466915,0.046995424,0.009311466,0.0043816487,0.0084641725,0.018836863,2.908301,0.0064769303,0.0
4.0625,2.46875,0.032826703,0.059935395,0.009518558,0.06294376,0.029818343,0.0012994985,0.008347758,0.00494965,0.016562708,2.9126768,0.0056864214,0.0
4.0626597,2.2674177,0.067638464,0.038654625,0.008483682,0.06993906,0.036354028,0.0092951385,0.0017593416,0.004411514,0.016792517,2.911155,0.005768335,0.0
4.065539,2.1186545,0.033759,0.019710666,0.013694387,0.042125583,0.011344083,0.0046067056,0.0009541388,0.0071210805,0.01539075,2.9170961,0.005276052,0.0
4.082028,0.60098064,0.06910272,0.076935284,0.008173247,0.08208207,0.063955925,0.0065757423,0.008612208,0.004250088,0.0090630725,2.9066846,0.0031180102,0.0
4.082028,0.60098064,0.050547574,0.056279164,0.009694297,0.06352238,0.043304354,0.0048098825,0.0063000964,0.005041034,0.010109015,2.911095,0.0034725817,0.0
4.0828295,0.40252224,0.05584543,0.062106553,0.005754791,0.06552718,0.052424803,0.0053195558,0.0069474485,0.0029924912,0.0065511875,2.9098434,0.0022513883,0.0
4.0828295,0.40252224,0.04056775,0.042175677,0.0037416467,0.045198757,0.037544664,0.0040936265,0.0045116884,0.001945656,0.0038270466,2.9138036,0.0013134195,0.0
4.0829477,0.80038756,0.05833911,0.079849005,0.0060233776,0.08142086,0.056767263,0.0043894956,0.009982066,0.003132156,0.012326799,2.9075675,0.0042395573,0.0
4.0829477,0.80038756,0.059460863,0.06198582,0.0068860184,0.06772414,0.05372255,0.0059869825,0.006643471,0.0035807292,0.0070007946,2.9094505,0.0024062258,0.0
4.0833335,0.0,0.041970786,0.05259912,0.009776297,0.05841223,0.036157675,0.0035359508,0.006299318,0.005083674,0.011127278,2.9124734,0.0038205595,0.0
4.0838966,0.20073323,0.046420153,0.046107505,0.013939775,0.06020448,0.032323178,0.0048520816,0.0047707935,0.007248682,0.013940651,2.912703,0.004786156,0.0
4.0838966,0.20073323,0.021541351,0.01097464,0.004750051,0.0233627,0.009153291,0.0030645037,0.0003171589,0.0024700263,0.0071047046,2.919453,0.002433574,0.0
4.085999,1.1892718,0.041537818,0.02775826,0.009524814,0.046403512,0.022892565,0.0053947377,0.001812053,0.004952903,0.011755474,2.915316,0.004032315,0.0
4.085999,1.1892718,0.07167123,0.073896945,0.010179587,0.08302432,0.062543854,0.0072802017,0.007858886,0.0052933847,0.010240234,2.9067373,0.003522931,0.0
4.0862346,0.9942805,0.078929566,0.06900293,0.01754959,0.0922042,0.055728305,0.008982952,0.006402025,0.009125786,0.018237947,2.9064715,0.006274944,0.0
4.0862346,0.9942805,0.0603743,0.055870015,0.003236532,0.06206516,0.054179154,0.006630261,0.0054591466,0.0016829965,0.0039430037,2.9100356,0.0013549675,0.0
4.0901465,1.3734093,0.030173834,0.036064662,0.00997795,0.04352285,0.022715643,0.0026785939,0.004210209,0.0051885336,0.010403603,2.9156601,0.003568181,0.0
4.0901465,1.3734093,0.035044145,0.06785929,0.0077732075,0.06960747,0.03329597,0.0010850091,0.009616947,0.0040420676,0.018155748,2.9115362,0.006235797,0.0
4.090312,2.3450882,0.06286719,0.051569838,0.013120524,0.07150332,0.04293371,0.00741938,0.004482069,0.0068226717,0.014284804,2.910239,0.0049084644,0.0
4.090312,2.3450882,0.06444561,0.0530267,0.015624274,0.07537093,0.042101376,0.0075930166,0.0046241013,0.008124622,0.016634777,2.9098976,0.0057166195,0.0
4.095931,1.5630834,0.029844776,0.056612533,0.0072064903,0.058429368,0.028027942,0.0010159713,0.007975588,0.0037473745,0.015200713,2.9133859,0.005217542,0.0
4.095931,1.5630834,0.06175666,0.048674602,0.0074707987,0.06514528,0.045285985,0.007443092,0.0040417574,0.003884815,0.009929646,2.9106894,0.0034114413,0.0
4.0960703,2.0475614,0.088709116,0.088989854,0.010001694,0.098852165,0.078846805,0.009203849,0.009276841,0.00520088,0.01000268,2.9031234,0.003445489,0.0
4.0960703,2.0475614,0.078772046,0.061349805,0.015519102,0.08785772,0.052264124,0.009551227,0.005021444,0.008069932,0.0177968,2.90735,0.0061213127,0.0
4.107656,2.391294,0.036726214,0.0446759,0.010619473,0.052040044,0.029362071,0.0031994497,0.005266369,0.0055221254,0.011338986,2.9139545,0.0038912708,0.0
4.1078014,1.7318494,0.045636233,0.07146605,0.012402687,0.076457046,0.040645234,0.0027314415,0.009447195,0.0064493967,0.017905906,2.909939,0.006153361,0.0
4.1078014,1.7318494,0.042028937,0.05833051,0.013480034,0.06593239,0.034427054,0.0030994865,0.0073378948,0.007009617,0.01575267,2.9118223,0.0054099006,0.0
4.1078157,2.189962,0.062050123,0.06513742,0.01621254,0.079879634,0.047307916,0.0062124026,0.0070151007,0.00843052,0.016285859,2.9088047,0.005598815,0.0
4.1078157,2.189962,0.011364297,0.024614133,0.012580216,0.03220721,0.0037712203,0.0001483996,0.0035933566,0.0065417117,0.014217995,2.9190636,0.0048707384,0.0
4.116846,1.9091595,0.047899194,0.026172446,0.010071747,0.051849764,0.022221874,0.0066762017,0.0010272476,0.005237308,0.014813945,2.914779,0.0050823563,0.0
4.116846,1.9091595,0.009154778,0.012464962,0.017197847,0.028087176,-0.0064674355,0.00069390243,0.0015545503,0.00894288,0.017277306,2.9206786,0.005915511,0.0
4.125,2.4375,0.046349626,0.062385544,0.0132311005,0.06983852,0.038896658,0.0035695587,0.007738897,0.0068801716,0.015470929,2.91088,0.0053148633,0.0
4.1354675,2.2676322,0.06339149,0.03994544,0.003009798,0.063771695,0.03956523,0.008421506,0.002325533,0.0015650948,0.012103232,2.9114873,0.004157061,0.0
4.1354675,2.2676322,0.06162856,0.08001071,0.018211596,0.0912191,0.050420176,0.0049755615,0.00975492,0.009470029,0.02039946,2.9071794,0.007016925,0.0
4.1383467,2.1188688,0.01277594,0.014862275,0.010617517,0.024487747,0.0031504687,0.0011659636,0.0017084103,0.0055211084,0.010668639,2.9200015,0.0036536416,0.0
4.1383467,2.1188688,0.05236178,0.045960933,0.0074124956,0.057235252,0.04108746,0.0059448895,0.004280671,0.0038544973,0.008073896,2.9120514,0.0027725801,0.0
4.139145,0.7007377,0.052334495,0.071728,0.0129312845,0.07819433,0.045868166,0.0039300937,0.008972404,0.0067242673,0.01616308,2.9091563,0.0055559343,0.0
4.139145,0.7007377,0.01537416,0.011760104,0.0068066455,0.02060956,0.0065247063,0.0018808088,0.00094115426,0.0035394554,0.0070424266,2.9200583,0.0024117418,0.0
4.1399465,0.50227934,0.0349549,0.023977732,0.0025792564,0.03553073,0.023401901,0.0044915285,0.0016374646,0.0013412132,0.006064415,2.9164817,0.0020793597,0.0
4.140881,0.3021556,0.026266333,0.024594275,0.011774869,0.037234813,0.013625792,0.0028621187,0.0024273838,0.006122931,0.01180451,2.9173896,0.0040462576,0.0
4.141013,1.092379,0.05495986,0.041188817,0.011372042,0.06136846,0.034780215,0.0067899656,0.0032094952,0.005913461,0.013294123,2.9122958,0.004564826,0.0
4.141248,0.8973876,0.04384586,0.060436774,0.014713708,0.06903237,0.03525026,0.0032658773,0.0075795148,0.0076511274,0.016891055,2.911381,0.0058017327,0.0
4.141248,0.8973876,0.08440867,0.071224675,0.01678918,0.095853604,0.05977974,0.009806852,0.006379013,0.008730372,0.018036932,2.9056053,0.0062076333,0.0
4.141948,0.100366615,0.05465425,0.07690195,0.0158283,0.08512429,0.046431907,0.003948721,0.009733122,0.008230715,0.019346192,2.9083135,0.006652031,0.0
4.141948,0.100366615,0.077942714,0.056020588,0.0031166933,0.07837721,0.055586096,0.009815967,0.0041162143,0.0016206803,0.011395557,2.9080427,0.0039186347,0.0
4.142969,1.2819433,0.086037576,0.089324094,0.017509304,0.10526708,0.070094585,0.008691559,0.009546053,0.009104837,0.017586246,2.9033864,0.0060571497,0.0
4.147116,1.4660808,0.012499148,0.011319972,0.010756434,0.02268214,0.0011369791,0.0013918868,0.0010853012,0.005593345,0.01077258,2.9204311,0.0036886951,0.0
4.147116,1.4660808,0.07099937,0.054897342,0.014339049,0.07939302,0.046503685,0.008639891,0.0044533648,0.007456305,0.016444668,2.9089499,0.005653129,0.0
4.152812,2.3138382,0.083668046,0.08926394,0.018752528,0.1054261,0.06750588,0.008264997,0.009719927,0.009751314,0.01896011,2.9036596,0.0065297293,0.0
4.155944,1.6453009,0.063891664,0.038759496,0.012597315,0.069118805,0.03353236,0.008605042,0.0020706777,0.006550603,0.017793223,2.9115646,0.006111224,0.0
4.155944,1.6453009,0.0644058,0.078845374,0.0038564259,0.07981078,0.0634404,0.005571916,0.009326204,0.0020053412,0.008185193,2.906998,0.002815686,0.0
4.159123,1.980467,0.062985115,0.04261418,0.008362473,0.06597822,0.03962108,0.008139384,0.0028429413,0.0043484857,0.01317857,2.911233,0.0045268005,0.0
4.1649885,1.822611,0.016877286,0.032595605,0.012621277,0.039604634,0.009868258,0.000529209,0.004615971,0.0065630632,0.014868189,2.9175458,0.0050961287,0.0
4.170156,2.360044,0.054271292,0.035562858,0.017408323,0.064679444,0.025154712,0.007103471,0.0022392788,0.009052327,0.019762367,2.913006,0.0067841834,0.0
4.1806235,2.1901765,0.020590706,0.01892347,0.012270234,0.032055605,0.0074585704,0.0022714776,0.0018379962,0.0063805208,0.012298517,2.918666,0.004213746,0.0
4.1806235,2.1901765,0.02382851,0.050676424,0.008403994,0.053090073,0.021414863,0.00038402757,0.0073644845,0.0043700766,0.015837606,2.9147303,0.0054336437,0.0
4.1806235,2.1901765,0.0074212137,0.007992403,0.010619699,0.018330347,-0.002916731,0.0007272534,0.00087576255,0.0055222427,0.010623539,2.9213767,0.0036364838,0.0
4.1806235,2.1901765,0.03700495,0.03856662,0.008436209,0.04625805,0.029313516,0.0037267043,0.004132738,0.004386828,0.008472268,2.9146104,0.0029068268,0.0
4.1806235,2.1901765,0.03358181,0.05836819,0.012239629,0.06339337,0.028556626,0.0015591698,0.008003629,0.006364607,0.017418372,2.9127681,0.0059800064,0.0
4.1806235,2.1901765,0.07480015,0.06632101,0.011443263,0.08276394,0.058357205,0.008440587,0.006236011,0.005950496,0.012203367,2.9072375,0.0041975817,0.0
4.1875,2.40625,0.07408526,0.06010908,0.0060113007,0.076315045,0.057879303,0.008795008,0.005161201,0.003125876,0.009217871,2.9080167,0.003169814,0.0
4.1957912,1.1904775,0.04513348,0.06817371,0.005935271,0.06961278,0.043694407,0.0028967436,0.0088872025,0.0030863406,0.012959186,2.910366,0.0044527682,0.0
4.1957912,1.1904775,0.045560915,0.063278906,0.008685653,0.066826455,0.042013366,0.003356331,0.007963008,0.004516539,0.012406545,2.9108684,0.0042621456,0.0
4.196027,0.99548614,0.06859423,0.06666419,0.015593511,0.08325256,0.05200587,0.0072843432,0.006782531,0.008108625,0.015623344,2.907897,0.0053727296,0.0
4.1962624,0.8004948,0.031151013,0.054585062,0.0043985634,0.055383466,0.030352606,0.001411849,0.0075047016,0.0022872528,0.01251543,2.913467,0.0042957175,0.0
4.1962624,0.8004948,0.030673739,0.026467731,0.012566392,0.041311882,0.015829585,0.003518137,0.002424575,0.0065345233,0.0127411485,2.9166832,0.004368369,0.0
4.1962624,0.8004948,0.031615622,0.06553534,0.0095053315,0.06801739,0.029133564,0.00064228696,0.009461411,0.004942772,0.019441914,2.912183,0.0066760615,0.0
4.1962624,0.8004948,0.058250077,0.029452028,0.0111777615,0.062079445,0.02562266,0.008304255,0.00081676245,0.0058124354,0.018228393,2.913246,0.006257073,0.0
4.1962624,0.8004948,0.029569272,0.04530601,0.0075975563,0.048375376,0.026499905,0.0018477382,0.00593929,0.003950729,0.010937735,2.9146886,0.0037526258,0.0
4.1962624,0.8004948,0.03048811,0.061053168,0.010121791,0.064101115,0.027440162,0.0007866884,0.008733603,0.005263331,0.018330477,2.9128141,0.006293047,0.0
4.197064,0.6020364,0.04299919,0.0544059,0.011868971,0.061870717,0.035534374,0.0035821914,0.0065479362,0.0061718645,0.013168171,2.9121547,0.0045217965,0.0
4.197865,0.403578,0.058464676,0.072590105,0.0031766933,0.07327164,0.05778315,0.004978542,0.008651153,0.0016518803,0.007744245,2.9083698,0.0026627444,0.0
4.197865,0.403578,0.085251205,0.074356854,0.006551187,0.088323995,0.07128407,0.009715883,0.006883352,0.0034066169,0.008519962,2.9051583,0.0029327017,0.0
4.1979675,2.2363822,0.013703189,0.006291267,0.0048450604,0.016097127,0.0038973298,0.0020032614,7.616177e-05,0.002519431,0.0060998984,2.9208612,0.0020883903,0.0
4.1979675,2.2363822,0.056617092,0.055737123,0.010581466,0.06676772,0.0455865,0.005956814,0.005728022,0.005502362,0.010590611,2.910473,0.0036387937,0.0
4.1989326,0.201789,0.009158913,0.013108029,0.0068617426,0.018273667,0.003993276,0.0006444957,0.0016712659,0.0035681059,0.007140195,2.9206057,0.002444765,0.0
4.199939,1.374615,0.08752706,0.09070208,0.008282304,0.09754764,0.080681495,0.008855161,0.009680667,0.0043067974,0.008433074,2.9030638,0.0029048875,0.0
4.2,0.0,0.058435414,0.028283797,0.004544719,0.059105545,0.027613671,0.008429108,0.00058968854,0.0023632536,0.015745938,2.9133565,0.005404741,0.0
4.2,0.0,0.07950935,0.06285047,0.013456522,0.087005764,0.05535406,0.009568363,0.0052370555,0.0069973907,0.015825853,2.9070983,0.005443866,0.0
4.2,0.0,0.0146921305,0.027377767,0.002924042,0.028019315,0.014050582,0.0005385017,0.003836767,0.0015205017,0.006984366,2.9183784,0.0023932352,0.0
4.2013993,2.0517745,0.04480303,0.054047335,0.0040110745,0.05554507,0.0433053,0.003938459,0.0063419775,0.0020857586,0.0061198846,2.911992,0.0021016144,0.0
4.2040863,1.5587523,0.06927893,0.0670961,0.0063180677,0.07459916,0.061775878,0.0073752687,0.0068077324,0.003285395,0.006411642,2.9077713,0.0022050021,0.0
4.2040863,1.5587523,0.051881567,0.04805228,0.009962218,0.060111463,0.039822385,0.005694366,0.0046987524,0.005180353,0.010144539,2.9118702,0.0034838568,0.0
4.2040863,1.5587523,0.052923013,0.030157775,0.009291927,0.05623406,0.026846722,0.0072796806,0.0013607199,0.0048318016,0.01469367,2.9137657,0.0050428454,0.0
4.2040863,1.5587523,0.04997863,0.0299867,0.004765991,0.051056687,0.028908644,0.006757147,0.0015592459,0.002478315,0.011074021,2.9141161,0.0038001304,0.0
4.2040863,1.5587523,0.034577806,0.038745314,0.009790927,0.046671767,0.026651349,0.0032710254,0.004354578,0.0050912816,0.010010209,2.914863,0.0034341952,0.0
4.2040863,1.5587523,0.089348465,0.08227886,0.016745966,0.10292864,0.06869869,0.009843668,0.008005572,0.008707901,0.017114975,2.9038064,0.005893979,0.0
4.213131,1.7360624,0.036920283,0.05508121,0.0065269726,0.0571836,0.034817897,0.0024231565,0.0071449974,0.0033940254,0.011182852,2.9127624,0.00383926,0.0
4.215312,2.2825882,0.024341518,0.038718022,0.0069136247,0.04150319,0.021556346,0.0014101502,0.005148041,0.0035950844,0.009973423,2.9160175,0.0034202205,0.0
4.215312,2.2825882,0.08054218,0.08529935,0.013004007,0.09614051,0.06970101,0.008005326,0.009242191,0.0067620827,0.013219751,2.904457,0.0045515397,0.0
4.2221756,1.9133725,0.06171185,0.03359785,0.011236933,0.065651186,0.02965852,0.008610924,0.001301284,0.0058432044,0.017996334,2.9123902,0.0061792317,0.0
4.2221756,1.9133725,0.028644752,0.05367463,0.0009526369,0.053710833,0.028608546,0.0010267232,0.0075344914,0.0004953711,0.012551144,2.9138513,0.004307407,0.0
4.232656,2.328794,0.07247613,0.0674147,0.012331925,0.082534336,0.0573565,0.007932308,0.0066163368,0.0064126006,0.012588918,2.907376,0.004329993,0.0
4.232656,2.328794,0.07407856,0.08319619,0.017155927,0.096388675,0.060886078,0.006992994,0.009363578,0.008921081,0.017751299,2.9054208,0.006109717,0.0
4.243676,2.123082,0.023246126,0.011850883,0.007027569,0.026595583,0.008501427,0.0033064256,0.0003436628,0.0036543356,0.009047078,2.9191628,0.003099203,0.0
4.243676,2.123082,0.07011147,0.041312926,0.017756684,0.078573495,0.0328509,0.009537878,0.0020502573,0.009233475,0.022861298,2.9105778,0.007854557,0.0
4.25,2.375,0.07955374,0.05950274,0.008729761,0.08282182,0.056234654,0.009837565,0.004624306,0.004539475,0.013293585,2.9074697,0.004572218,0.0
4.25,2.375,0.03394576,0.016391901,0.0036115178,0.03465975,0.015677912,0.00489956,0.0003355562,0.0018779892,0.009490919,2.9174485,0.0032531575,0.0
4.250805,1.0935847,0.07045393,0.047990803,0.009368401,0.073848195,0.04459653,0.009079331,0.0032389192,0.004871568,0.014625832,2.9097881,0.0050264252,0.0
4.2510405,0.8985933,0.024530526,0.040494636,0.010883158,0.046009112,0.019016054,0.0013059739,0.005456642,0.0056592417,0.013496529,2.9157965,0.0046287626,0.0
4.2510405,0.8985933,0.067700684,0.032448534,0.006975152,0.06903064,0.031118572,0.009790538,0.0006249793,0.0036270788,0.018956035,2.911846,0.006509972,0.0
4.252761,1.283149,0.047292214,0.044734303,0.017333087,0.063393466,0.02863305,0.0051179067,0.0044528497,0.009013204,0.017380208,2.9127595,0.005966922,0.0
4.254181,0.7017935,0.006331508,0.006848208,0.0103128,0.016905893,-0.0037261778,0.00061817415,0.00075251615,0.0053626555,0.010316035,2.9216278,0.0035309203,0.0
4.254181,0.7017935,0.05891359,0.038584925,0.008809863,0.06220018,0.035298333,0.0077126483,0.0024271957,0.0045811282,0.013450924,2.912144,0.004618908,0.0
4.2549825,0.5033351,0.07785846,0.07860544,0.009260513,0.08749999,0.068963915,0.008039014,0.00823323,0.0048154662,0.009268038,2.9055119,0.0031898124,0.0
4.2559166,0.3032114,0.08309253,0.08632344,0.015936224,0.10072588,0.0686901,0.008389612,0.009229647,0.008286836,0.016017891,2.904055,0.0055156983,0.0
4.2569084,1.4672865,0.0801019,0.06560334,0.0045163603,0.081393674,0.064311564,0.009461483,0.0056918594,0.002348507,0.008541055,2.906722,0.0029383805,0.0
4.2569084,1.4672865,0.026349138,0.04565236,0.009051529,0.049232673,0.022768829,0.0012346588,0.006253496,0.0047067944,0.013231922,2.915012,0.004539234,0.0
4.256984,0.10142239,0.022746246,0.033394143,0.0048056333,0.03524226,0.020898128,0.0015350732,0.0043035266,0.0024989292,0.007172066,2.9167957,0.002458885,0.0
4.256984,0.10142239,0.032627862,0.030868966,0.013583984,0.045360837,0.018135991,0.0035304907,0.0030731785,0.007063671,0.013612423,2.9159684,0.004668234,0.0
4.2604675,2.2051322,0.040682882,0.05011928,0.012941853,0.059176166,0.031625997,0.0034949803,0.0059484434,0.006729763,0.013775084,2.912897,0.004728998,0.0
4.2604675,2.2051322,0.06542825,0.07103445,0.015211843,0.08369929,0.05276339,0.006367254,0.007824864,0.007910158,0.015467951,2.9077616,0.005319539,0.0
4.2612734,1.6495138,0.04853114,0.04694049,0.0020002322,0.04988837,0.045583267,0.0051713083,0.0047577396,0.0010401206,0.002152551,2.912372,0.00073910574,0.0
4.2612734,1.6495138,0.036820706,0.027515663,0.017239554,0.050024502,0.014311863,0.004555146,0.0021358354,0.008964567,0.017856319,2.915874,0.0061238306,0.0
4.2644525,1.9846799,0.052015252,0.033433083,0.012193749,0.058054265,0.027394075,0.0068589947,0.0020276313,0.0063407486,0.015330095,2.9134994,0.0052617462,0.0
4.270318,1.826824,0.0313434,0.025617162,0.006644524,0.035715412,0.021245148,0.0037063595,0.002217538,0.0034551523,0.007235132,2.9167035,0.0024805854,0.0
4.277812,2.2513382,0.047652353,0.035382487,0.010686852,0.05384001,0.029194832,0.0059128935,0.0027227288,0.0055571627,0.01232259,2.913771,0.0042290865,0.0
4.295156,2.297544,0.017451461,0.02448907,0.010270379,0.031826723,0.010113809,0.0012660184,0.003095796,0.005340596,0.010856457,2.918393,0.0037200123,0.0
4.3055835,1.191683,0.038387954,0.056814652,0.014734,0.06497878,0.030223833,0.0025550644,0.007346005,0.0076616793,0.017377473,2.9124024,0.0059667146,0.0
4.3055835,1.191683,0.03293258,0.04536441,0.008983421,0.050072756,0.028224234,0.002455305,0.0056875804,0.0046713785,0.010924261,2.9143038,0.0037484977,0.0
4.305819,0.99669176,0.061339688,0.063392535,0.011536201,0.073947884,0.05078434,0.006219204,0.0067529455,0.0059988243,0.011581773,2.909081,0.003981248,0.0
4.305819,0.99669176,0.029002901,0.029670773,0.008549364,0.03789272,0.020780953,0.0029642072,0.003137854,0.0044456692,0.0085558845,2.9165108,0.0029336028,0.0
4.306729,2.0559874,0.024789622,0.054229833,0.012712893,0.05895964,0.020059815,0.00028178396,0.007936238,0.0066107037,0.019449912,2.9142225,0.006674134,0.0
4.306729,2.0559874,0.03251359,0.06277196,0.012907056,0.06752957,0.027755985,0.0010212598,0.008888436,0.0067116683,0.019886792,2.9123929,0.006828334,0.0
4.3073435,1.5612645,0.05810499,0.06141286,0.00942008,0.0693231,0.05019475,0.005784904,0.0066449502,0.004898441,0.009564174,2.9096675,0.0032870334,0.0
4.3073435,1.5612645,0.026316315,0.030637838,0.012929999,0.041586377,0.015367775,0.0023998176,0.0035234136,0.006723599,0.0131093,2.9167044,0.004494559,0.0
4.3090167,0.80403674,0.033025708,0.06362732,0.003104953,0.063939184,0.03271385,0.0010477478,0.009004165,0.0016145755,0.015612667,2.912239,0.0053610527,0.0
4.3090167,0.80403674,0.046509538,0.05091844,0.008906991,0.057889722,0.039538257,0.004493097,0.0056394115,0.004631635,0.009175733,2.912152,0.0031508426,0.0
4.309731,1.3758205,0.018181376,0.030791426,0.0048337947,0.03243114,0.01654166,0.000907279,0.0041858917,0.002513573,0.00794474,2.917602,0.0027230377,0.0
4.309731,1.3758205,0.05452845,0.076025724,0.005927531,0.07755181,0.05300236,0.00399417,0.009583462,0.003082316,0.012274725,2.908426,0.0042204014,0.0
4.3120995,0.6030922,0.05902372,0.07718661,0.011603176,0.08283969,0.053370632,0.0047217607,0.009444111,0.0060336506,0.014734529,2.90779,0.0050672605,0.0
4.3120995,0.6030922,0.014740506,0.02825868,0.016232457,0.03908305,0.003916137,0.0004785949,0.00399332,0.008440876,0.017583456,2.918274,0.0060252934,0.0
4.3125,2.34375,0.031818558,0.038465876,0.013690494,0.04923038,0.021054054,0.0027906387,0.004518941,0.0071190563,0.014088164,2.915205,0.0048326496,0.0
4.312901,0.4046338,0.04319054,0.0669907,0.01039772,0.070893295,0.039287947,0.0026354024,0.008823445,0.005406814,0.015802674,2.9107175,0.005429134,0.0
4.312901,0.4046338,0.05342641,0.047876332,0.010559286,0.061569218,0.039733525,0.005989252,0.0045462316,0.0054908283,0.010917846,2.9117162,0.0037496258,0.0
4.313968,0.20284478,0.048830792,0.03866282,0.0059372517,0.05156332,0.035930295,0.005871503,0.0032278316,0.0030873707,0.007816512,2.9132693,0.0026830724,0.0
4.313968,0.20284478,0.07043902,0.06693725,0.0056013274,0.07455674,0.06281954,0.0075987945,0.0066883354,0.00291269,0.005868599,2.9076588,0.0020183243,0.0
4.3166666,0.0,0.056326438,0.026221754,0.011377589,0.06014266,0.022405537,0.008206114,0.00037889674,0.0059163454,0.018868562,2.9138255,0.006475529,0.0
4.3184605,1.7402754,0.046906963,0.04109562,0.010383792,0.054783963,0.033218615,0.005331608,0.0038206591,0.0053995713,0.010782674,2.913212,0.0037013008,0.0
4.3184605,1.7402754,0.05781887,0.07025343,0.010874857,0.07656281,0.0515095,0.005043266,0.008276251,0.005654925,0.012526654,2.9087052,0.0043066083,0.0
4.32352,2.1380377,0.07040288,0.047087695,0.00433741,0.07118364,0.046306934,0.009140483,0.0030785352,0.002255453,0.012438351,2.9098954,0.004274501,0.0
4.327505,1.9175855,0.07336695,0.05292666,0.0016186598,0.07349433,0.05279927,0.009224504,0.0039100293,0.00084170303,0.01034753,2.9089053,0.0035571905,0.0
4.327505,1.9175855,0.0066784164,0.0037143305,0.012237983,0.01752377,-0.007131022,0.0009257539,0.00015509162,0.0063637504,0.012327395,2.9219413,0.0042189057,0.0
4.340312,2.2200882,0.047115922,0.047045406,0.00026997578,0.047352932,0.0468084,0.004905555,0.0048872214,0.00014038739,0.00027226657,2.9125195,9.348146e-05,0.0
4.340312,2.2200882,0.0733064,0.045775507,0.015967248,0.0806227,0.038459193,0.0097712735,0.0026132427,0.008302968,0.021081755,2.9097164,0.0072452957,0.0
4.357656,2.266294,0.06706939,0.06656787,0.011807561,0.078628846,0.0550084,0.007014334,0.0068839393,0.0061399313,0.011810223,2.9080794,0.004061176,0.0
4.360166,1.4697987,0.033491384,0.056272965,0.008153415,0.058890324,0.030874025,0.0017061403,0.0076293508,0.0042397757,0.0140081495,2.913014,0.0048088166,0.0
4.360597,1.0947902,0.02341198,0.052423496,0.0113389,0.056329355,0.01950612,0.0001719476,0.0077149407,0.0058962274,0.018411618,2.9145806,0.006317073,0.0
4.360597,1.0947902,0.05132495,0.07043029,0.0033647974,0.071005575,0.050749667,0.003847577,0.008814966,0.0017496945,0.010127954,2.9094157,0.0034810957,0.0
4.362553,1.2843547,0.042305592,0.022204792,0.01099607,0.04715231,0.017358074,0.0059676426,0.00074143603,0.0057179555,0.014897118,2.9158545,0.005109006,0.0
4.362553,1.2843547,0.08554431,0.08512549,0.0045284806,0.08986822,0.08080158,0.008929274,0.008820383,0.0023548098,0.0045333207,2.903914,0.0015611071,0.0
4.3637953,0.9021352,0.0669646,0.07870172,0.0053581567,0.08077985,0.064886466,0.0060488223,0.009100473,0.0027862412,0.007946692,2.9067264,0.0027338977,0.0
4.3645306,1.652026,0.03148044,0.05600746,0.0046835863,0.056871388,0.03061651,0.0013608576,0.0077378824,0.0024354646,0.013127439,2.91327,0.0045060837,0.0
4.3669357,0.70533544,0.025260227,0.027754711,0.008475611,0.03507436,0.017940579,0.0024324935,0.0030810593,0.0044073174,0.008566891,2.9171474,0.0029367357,0.0
4.3697815,1.9888929,0.031048173,0.047613032,0.008116849,0.050927233,0.02773397,0.0019369506,0.0062438133,0.004220761,0.011596631,2.9142628,0.0039792676,0.0
4.3697815,1.9888929,0.03981851,0.026737077,0.004044261,0.040967856,0.025587734,0.005161476,0.0017603041,0.0021030153,0.007690061,2.9156244,0.0026375349,0.0
4.370018,0.5043909,0.065814145,0.06198553,0.015345264,0.07936405,0.04843563,0.007143302,0.0061478624,0.007979536,0.015464209,2.908736,0.0053164703,0.0
4.370018,0.5043909,0.015509548,0.021903407,0.008306997,0.027607407,0.009805548,0.0011142717,0.002776675,0.004319638,0.008900929,2.9189022,0.00304941,0.0
4.3709526,0.3042672,0.05062702,0.042428255,0.007144095,0.054764327,0.03829095,0.0059047127,0.0037730343,0.003714929,0.008236688,2.912644,0.0028279074,0.0
4.3709526,0.3042672,0.08403567,0.07131012,0.014800279,0.09378293,0.061562866,0.009732301,0.0064236578,0.0076961447,0.016110033,2.9056377,0.005544405,0.0
4.373651,0.10142239,0.03969766,0.038364466,0.017578045,0.05662174,0.021440383,0.004232545,0.0038859148,0.009140583,0.01759068,2.9143302,0.0060359254,0.0
4.375,2.3125,0.019308796,0.028810026,0.008336547,0.033654533,0.01446429,0.0012670185,0.0037373384,0.004335004,0.009595122,2.9176981,0.0032885931,0.0
4.3756475,1.8310369,0.026486117,0.042396333,0.009316129,0.046691693,0.022190757,0.0015135591,0.005650215,0.0048443866,0.012250468,2.9153626,0.0042020394,0.0
4.3756475,1.8310369,0.09014803,0.09267445,0.0070693623,0.09859258,0.0842299,0.009178334,0.009835201,0.003676068,0.007181339,2.9025471,0.0024741506,0.0
4.3865733,2.0709434,0.060767736,0.06711379,0.0036156855,0.0687513,0.059130225,0.005824852,0.007474825,0.0018801563,0.0048105363,2.9087267,0.0016538289,0.0
4.4033647,2.1529937,0.03950075,0.06925727,0.00477039,0.07000332,0.038754694,0.0017870697,0.009523762,0.0024806026,0.015624315,2.9108777,0.0053675612,0.0
4.410601,1.5637767,0.04578796,0.07285893,0.01347328,0.07842158,0.040225312,0.0026504116,0.0096888635,0.007006105,0.019098133,2.9097655,0.0065634614,0.0
4.410601,1.5637767,0.0739255,0.07576892,0.006109622,0.081025966,0.06866845,0.007544465,0.008023753,0.003177003,0.006178759,2.9062734,0.0021260076,0.0
4.412988,1.3783327,0.049845453,0.022314725,0.005133036,0.050771356,0.021388821,0.007331323,0.00017333463,0.0026691784,0.014691267,2.914994,0.0050398964,0.0
4.415375,1.1928887,0.027647017,0.016375577,0.016977558,0.039899807,0.004122786,0.0037544616,0.0008238876,0.008828329,0.01788851,2.9181588,0.0061300676,0.0
4.415375,1.1928887,0.087956145,0.09119397,0.012659109,0.102337256,0.07681285,0.008894889,0.0097367205,0.006582736,0.012762204,2.9029603,0.0043962724,0.0
4.415375,1.1928887,0.043882012,0.059543483,0.013768714,0.06755251,0.03587299,0.0033421337,0.007414116,0.0071597304,0.01583976,2.9114773,0.0054404545,0.0
4.415375,1.1928887,0.08466389,0.07555742,0.0062555433,0.08784782,0.07237349,0.009515349,0.0071476647,0.0032528823,0.007737167,2.9050894,0.0026633146,0.0
4.415375,1.1928887,0.03578843,0.057938196,0.011012207,0.062481306,0.031245321,0.0019943148,0.007753253,0.0057263467,0.015617993,2.9125683,0.005362275,0.0
4.415375,1.1928887,0.046656486,0.054585017,0.015477893,0.06659825,0.034643248,0.004233849,0.006295266,0.008048504,0.015977502,2.9117231,0.0054873014,0.0
4.4185734,1.0002337,0.061837763,0.07588643,0.012233837,0.082969114,0.054755077,0.005335331,0.008987983,0.0063615944,0.014107019,2.9076197,0.0048517413,0.0
4.420156,2.235044,0.065048456,0.08023546,0.01536168,0.089777954,0.055505954,0.005580452,0.009529073,0.007988073,0.017136,2.9067693,0.005895205,0.0
4.420156,2.235044,0.045720305,0.06104837,0.0117374705,0.067402385,0.03936629,0.0035593223,0.007544618,0.006103484,0.014018048,2.9111013,0.004815376,0.0
4.4217176,1.7427876,0.021823304,0.044127386,0.005110105,0.04524242,0.020708269,0.00052990473,0.006328966,0.0026572545,0.012267076,2.9156923,0.0042072604,0.0
4.4217715,0.8075786,0.010821099,0.009829128,0.008070858,0.018411197,0.0022390299,0.0012027681,0.00094485533,0.004196846,0.008086083,2.9207876,0.00276846,0.0
4.4217715,0.8075786,0.049142096,0.06002218,0.010886349,0.06675205,0.04241223,0.0042621307,0.0070909522,0.005660901,0.012169909,2.910832,0.004180904,0.0
4.4248543,0.6066341,0.0464192,0.032154504,0.015726564,0.05655518,0.022018522,0.005940242,0.0022314219,0.008177813,0.01726833,2.9142725,0.005925434,0.0
4.4279366,0.40568957,0.023247717,0.049860414,0.005415511,0.05092023,0.0221879,0.00034197184,0.0072612725,0.0028160654,0.014366165,2.9148874,0.004928549,0.0
4.4279366,0.40568957,0.04301168,0.033550225,0.0116361445,0.050841987,0.025719916,0.0052112076,0.0027512293,0.0060507944,0.012561035,2.9144988,0.004309844,0.0
4.4279366,0.40568957,0.083931975,0.088588774,0.008606153,0.095175944,0.07734481,0.008365694,0.009576461,0.004475199,0.008915566,2.9037058,0.0030704094,0.0
4.4279366,0.40568957,0.054917842,0.07009669,0.010607349,0.07555009,0.04946444,0.004527505,0.0084740035,0.005515821,0.0130428225,2.9090493,0.0044835345,0.0
4.4279366,0.40568957,0.027205708,0.011675401,0.013540259,0.035049405,0.0038317032,0.004040757,2.8774898e-06,0.0070409337,0.015608851,2.9187372,0.0053478098,0.0
4.4279366,0.40568957,0.0652377,0.077833936,0.003727555,0.07885435,0.064217284,0.0058022127,0.009077235,0.0019383284,0.007318534,2.9070182,0.0025175398,0.0
4.430635,0.20284478,0.023760673,0.039098058,0.0092592025,0.043451913,0.019406816,0.0012747938,0.005262513,0.004814785,0.012022548,2.9160402,0.004122902,0.0
4.4328346,1.9217983,0.025685182,0.0403201,0.006993299,0.04312447,0.022880811,0.0015297354,0.0053348127,0.003636515,0.01012183,2.9156864,0.0034715084,0.0
4.4328346,1.9217983,0.022627698,0.037978172,0.009663775,0.042643834,0.017962035,0.0011559436,0.005147066,0.0050251624,0.0123409,2.9162936,0.0042317067,0.0
4.4328346,1.9217983,0.0712799,0.05863101,0.011467559,0.078051396,0.051859524,0.008399721,0.005111011,0.0059631304,0.013095936,2.9084985,0.0045026448,0.0
4.4328346,1.9217983,0.01937736,0.037912827,0.008650183,0.0413225,0.015967691,0.00056947896,0.0053886995,0.004498095,0.012677404,2.9166665,0.004346539,0.0
4.4328346,1.9217983,0.08275751,0.065203846,0.010538441,0.08769532,0.060266025,0.009975965,0.005412013,0.0054799886,0.013714649,2.9064682,0.0047186646,0.0
4.4328346,1.9217983,0.04072642,0.057922833,0.009406782,0.062068906,0.036580343,0.0028942272,0.007365294,0.004891526,0.012744281,2.9120147,0.004376448,0.0
4.4328346,1.9217983,0.07261623,0.06921376,0.0029954354,0.07435983,0.06747017,0.007817479,0.006932838,0.0015576263,0.003444828,2.907158,0.001184947,0.0
4.4333334,0.0,0.049834255,0.049536202,0.01605157,0.065737486,0.033632968,0.0052060103,0.005128516,0.008346816,0.01605226,2.9119334,0.0055125775,0.0
4.4375,2.28125,0.031639498,0.014320931,0.0076805223,0.034554914,0.011405518,0.0046413555,0.0001385286,0.003993871,0.011574698,2.9179409,0.0039667347,0.0
4.449626,2.0038488,0.07276835,0.044339124,0.0019521544,0.07290178,0.044205703,0.009785388,0.0023937884,0.0010151202,0.014348038,2.9099386,0.004930701,0.0
4.449626,2.0038488,0.05280401,0.04585303,0.015106448,0.06482961,0.03382743,0.0060337936,0.0042265374,0.007855352,0.015501089,2.9120138,0.005323151,0.0
4.4634233,1.4723108,0.029129421,0.064136826,0.011713868,0.0676948,0.025571447,0.00029888205,0.009400806,0.006091211,0.021061676,2.91262,0.0072311787,0.0
4.465811,1.2868668,0.050575204,0.067423515,0.013904471,0.07525669,0.042742033,0.003945653,0.008326212,0.007230324,0.016257329,2.9098382,0.005587022,0.0
4.465811,1.2868668,0.05218222,0.046455808,0.009767893,0.0594979,0.039140128,0.0058736103,0.004384743,0.005079304,0.010178886,2.912016,0.0034954776,0.0
4.4664173,2.085899,0.060207814,0.027802592,0.012770928,0.06463579,0.023374615,0.008789219,0.00036386194,0.006640882,0.020630587,2.9132113,0.0070817336,0.0
4.4664173,2.085899,0.042407855,0.06923478,0.0062412214,0.0706157,0.041026935,0.002317916,0.009292916,0.0032454347,0.014794383,2.9105532,0.0050830143,0.0
4.467788,1.6545383,0.05822445,0.039868552,0.010199538,0.06276748,0.03532552,0.0074871024,0.0027145685,0.0053037596,0.013720982,2.9120772,0.004711751,0.0
4.473352,1.0983322,0.027591575,0.021940995,0.016317606,0.04132667,0.008205896,0.0033102687,0.0018411177,0.008485154,0.016560387,2.9175391,0.005676149,0.0
4.473352,1.0983322,0.02440274,0.03404852,0.011948076,0.04211038,0.016340878,0.0017855137,0.0042934166,0.006212999,0.012884751,2.9165359,0.004417827,0.0
4.4765496,0.90567714,0.05568425,0.03179875,0.014972183,0.062893406,0.024589596,0.0076542296,0.001444001,0.0077855345,0.019151904,2.9132705,0.0065740217,0.0
4.4789047,1.833549,0.03169272,0.024623353,0.011469244,0.0401596,0.016156472,0.0038474533,0.0020094176,0.0059640063,0.012001565,2.9167762,0.004114668,0.0
4.4789047,1.833549,0.08122824,0.0706515,0.013455173,0.090397,0.061482742,0.009272722,0.006522769,0.0069966894,0.014457129,2.9060276,0.0049748765,0.0
4.47969,0.7088773,0.033166368,0.060394447,0.008864981,0.06302633,0.030534485,0.0013255117,0.008404812,0.0046097897,0.016245924,2.912587,0.005577833,0.0
4.482773,0.5079328,0.013810852,0.02955702,0.011390464,0.03553053,0.007837342,0.00020812731,0.0043021305,0.005923041,0.013846594,2.9182324,0.0047448566,0.0
4.482773,0.5079328,0.04219738,0.0456651,0.00987565,0.05395794,0.033904538,0.0041180444,0.005019652,0.0051353374,0.010026701,2.9132278,0.003441784,0.0
4.4832087,2.1679497,0.014181053,0.019478804,0.008310411,0.025552284,0.008107574,0.0010616048,0.0024390197,0.0043214136,0.008722356,2.9193244,0.0029877995,0.0
4.4832087,2.1679497,0.07735381,0.072243005,0.007919357,0.08311984,0.06647697,0.0084434375,0.007114629,0.0041180653,0.008321434,2.9062843,0.0028632553,0.0
4.4876194,0.3042672,0.02865716,0.026876159,0.010161687,0.03796729,0.017566029,0.0031192624,0.002656202,0.0052840766,0.010200631,2.9168642,0.0034971223,0.0
4.4876194,0.3042672,0.04413881,0.059303094,0.010900399,0.064999044,0.03844287,0.0034076215,0.007350335,0.0056682066,0.013278088,2.9114757,0.004560604,0.0
4.4903173,0.10142239,0.056438997,0.07273235,0.0036342458,0.07350621,0.055665128,0.0045987736,0.008835045,0.0018898076,0.008920543,2.9085817,0.0030669735,0.0
4.5,2.25,0.06728813,0.065681726,0.010845267,0.0773599,0.05560996,0.007123264,0.0067055994,0.0056395386,0.01087497,2.9081545,0.0037394746,0.0
4.5,2.25,0.051397678,0.0557675,0.0094268285,0.0632593,0.043905865,0.005004512,0.0061406647,0.0049019502,0.009676719,2.9110568,0.003324126,0.0
4.5,2.25,0.033376485,0.017085124,0.012720123,0.04033556,0.01012605,0.0047418806,0.00050612615,0.0066144634,0.015104754,2.9174345,0.00517741,0.0
4.512126,1.9725988,0.024909088,0.025452027,0.009139499,0.034324087,0.016037028,0.0025481957,0.0026893595,0.004752539,0.009143529,2.917446,0.003134087,0.0
4.512126,1.9725988,0.059495885,0.07590506,0.011783658,0.08205909,0.053341858,0.004907655,0.009174041,0.0061275014,0.014358617,2.907881,0.0049378285,0.0
4.513859,1.5662888,0.027534429,0.0510084,0.00604863,0.052475303,0.026067523,0.0010326105,0.0071358425,0.0031452873,0.01320389,2.9142761,0.0045307614,0.0
4.513859,1.5662888,0.06761094,0.038930193,0.0028908742,0.06789943,0.03864171,0.009268636,0.0018116407,0.0015032544,0.014628859,2.911127,0.005025153,0.0
4.516246,1.380845,0.056117516,0.050593577,0.008020507,0.06183829,0.044872798,0.0062670885,0.004830864,0.004170663,0.008482747,2.9111078,0.002913924,0.0
4.516246,1.380845,0.025385609,0.019684127,0.0046976553,0.028029837,0.017039899,0.0030848184,0.0016024333,0.0024427806,0.005494969,2.918041,0.001883102,0.0
4.516253,1.9050378,0.041660246,0.06711367,0.0088498825,0.069888234,0.038885683,0.002347298,0.008965188,0.0046019387,0.015501276,2.9108758,0.005325296,0.0
4.516253,1.9050378,0.06540186,0.040608723,0.0071752006,0.06732865,0.03868194,0.008735657,0.002289442,0.003731104,0.014323354,2.9111867,0.0049201082,0.0
4.5243583,1.2012833,0.070266336,0.073417574,0.011381002,0.0833315,0.060352404,0.007061901,0.007881223,0.0059181205,0.01148955,2.9069493,0.003952442,0.0
4.5243583,1.2012833,0.071500435,0.039988894,0.006587108,0.07282197,0.03866736,0.009893944,0.0017009447,0.003425296,0.017077304,2.9105704,0.0058673397,0.0
4.5249753,1.7452997,0.022333376,0.020461429,0.0066794455,0.028142108,0.014652697,0.0024686828,0.0019819764,0.0034733114,0.006744705,2.9182968,0.0023111785,0.0
4.5249753,1.7452997,0.041959573,0.036864158,0.0027102744,0.043131597,0.035692133,0.0047612377,0.0034364294,0.0014093425,0.0037197322,2.9142444,0.0012763968,0.0
4.5289173,2.054649,0.012596769,0.012933441,0.01057411,0.023340557,0.0021896558,0.0012838033,0.0013713381,0.0054985364,0.010575451,2.9202387,0.0036214336,0.0
4.531328,1.0037756,0.024241047,0.018365018,0.0039020395,0.02618748,0.016418584,0.002979399,0.0014516312,0.0020290604,0.004884448,2.918318,0.0016737202,0.0
4.531328,1.0037756,0.04312597,0.06705106,0.014313714,0.07374287,0.03643416,0.0026189429,0.008839467,0.0074431305,0.018654354,2.910718,0.0064088497,0.0
4.5345263,0.8111205,0.05700334,0.039793827,0.010350193,0.061858464,0.034938704,0.007270688,0.0027962157,0.0053820997,0.01345988,2.9122229,0.004621858,0.0
4.5345263,0.8111205,0.07836959,0.07053403,0.010896291,0.08603102,0.06287259,0.008761609,0.006724365,0.0056660706,0.0115792155,2.9063623,0.0039840923,0.0
4.5376086,0.610176,0.08554136,0.07320044,0.009110891,0.09037467,0.06836713,0.009858891,0.006650253,0.004737663,0.01100377,2.9052558,0.0037875392,0.0
4.5376086,0.610176,0.041602366,0.05831983,0.007369831,0.061104834,0.03881736,0.0030226836,0.007369223,0.0038323118,0.011143737,2.9118714,0.0038270017,0.0
4.543355,0.40857506,0.025420902,0.021305768,0.011168487,0.034719773,0.012006897,0.0029647541,0.0018948189,0.005807613,0.011356438,2.9178545,0.0038920506,0.0
4.543355,0.40857506,0.06765233,0.04383433,0.006745408,0.06942999,0.042056665,0.008893645,0.0027009654,0.0035076118,0.013686664,2.9105706,0.004702399,0.0
4.5457087,2.1366997,0.028303433,0.020594215,0.012862561,0.03787654,0.011021109,0.0035448757,0.0015404791,0.006688531,0.013427715,2.9176104,0.0046022986,0.0
4.547302,0.20284478,0.057813674,0.04751808,0.013387498,0.06700899,0.03832276,0.0068156775,0.004138823,0.0069614984,0.014343113,2.911263,0.0049267663,0.0
4.547302,0.20284478,0.058403336,0.04523712,0.0074217343,0.061740883,0.04189957,0.0071009104,0.0036776953,0.0038593016,0.009920657,2.9114532,0.0034074588,0.0
4.55,0.0,0.053603917,0.05523693,0.011725977,0.06617479,0.04266605,0.0054474315,0.0058720144,0.0060975077,0.011754369,2.9108684,0.0040380973,0.0
4.562323,1.8167884,0.03800219,0.059468407,0.017192965,0.06900344,0.028467154,0.002277862,0.007859078,0.008940341,0.020268142,2.9121473,0.0069598616,0.0
4.5625,2.21875,0.05893724,0.07431355,0.016762521,0.085066915,0.04818387,0.00493012,0.00892796,0.008716511,0.018441522,2.9081228,0.006341384,0.0
4.566681,1.474823,0.05863889,0.045502026,0.009433344,0.063565336,0.04057558,0.007123119,0.0037075346,0.0049053384,0.011494879,2.911397,0.003948235,0.0
4.566681,1.474823,0.050848037,0.06624878,0.01093433,0.071922086,0.04517473,0.004086937,0.00809113,0.005685851,0.013373679,2.9099398,0.004595861,0.0
4.571046,1.6570504,0.046899334,0.057041813,0.016849898,0.06956706,0.03437408,0.0040864167,0.006723461,0.008761946,0.01759649,2.9114194,0.006043956,0.0
4.571046,1.6570504,0.043880284,0.07353725,0.005651779,0.07457781,0.042839725,0.0022503056,0.009961116,0.0029389248,0.015869042,2.9099038,0.0054534595,0.0
4.5747933,1.2952614,0.07068503,0.082521446,0.008803665,0.08721124,0.06599523,0.0064280014,0.009505469,0.0045779054,0.010608003,2.9058783,0.0036505323,0.0
4.5823345,1.1067268,0.021799825,0.018600296,0.00081754057,0.021996617,0.018403504,0.002516745,0.0016848671,0.00042512105,0.0017965566,2.9185662,0.0006155614,0.0
4.5893044,0.909219,0.042687733,0.043081116,0.01351084,0.056396697,0.029372152,0.0044088396,0.0045111193,0.0070256363,0.013512272,2.9134634,0.004637873,0.0
4.5893044,0.909219,0.056339145,0.04028632,0.011202027,0.062093467,0.034531996,0.0071113906,0.0029376566,0.0058250534,0.013780735,2.9122422,0.004732002,0.0
4.5914173,2.023399,0.019824456,0.040755194,0.010035918,0.044789605,0.015790045,0.00042914576,0.0058711367,0.0052186768,0.01449978,2.9162965,0.0049719843,0.0
4.5914173,2.023399,0.0717155,0.041787114,0.016384965,0.078941256,0.03456135,0.009792825,0.0020114454,0.008520181,0.022189952,2.910344,0.007624512,0.0
4.592445,0.7124192,0.035144806,0.018988926,0.0099064205,0.03984929,0.014284445,0.004915218,0.00071468955,0.005151338,0.012782422,2.9170215,0.0043820115,0.0
4.592445,0.7124192,0.06965002,0.062608264,0.010669849,0.0773649,0.054893382,0.0077928565,0.005962002,0.0055483207,0.011235759,2.9082344,0.0038634297,0.0
4.5955443,1.9558382,0.051777836,0.041195188,0.017035611,0.06432496,0.028648065,0.0062103407,0.0034588524,0.008858517,0.017838448,2.912653,0.0061244676,0.0
4.5981913,0.5108183,0.059344262,0.041310612,0.015398783,0.06817192,0.032482952,0.0075784274,0.0028896779,0.008007366,0.017844483,2.911789,0.0061283573,0.0
4.5996714,1.8882772,0.009627845,0.015347641,0.011723121,0.024554664,0.00042082183,0.00055515167,0.0020422984,0.006096022,0.012066921,2.9203012,0.004132081,0.0
4.5996714,1.8882772,0.030555738,0.0672875,0.01034314,0.06999971,0.027843526,0.00031271912,0.009862976,0.005378432,0.021078091,2.9121053,0.0072380938,0.0
4.603038,0.30715266,0.08070226,0.07994629,0.011098467,0.09142918,0.06921937,0.008452,0.008255446,0.005771202,0.011104904,2.9050412,0.0038226321,0.0
4.606984,0.10142239,0.03642856,0.04677081,0.009740533,0.052627765,0.030571604,0.0029818737,0.0056708595,0.005065077,0.01102808,2.9137523,0.003784838,0.0
4.606984,0.10142239,0.057952836,0.06128449,0.0004116816,0.061334606,0.05790272,0.005767225,0.0066334554,0.0002140744,0.0017159432,2.909699,0.0005897322,0.0
4.6082087,2.1054497,0.060420603,0.05741079,0.011684977,0.07069719,0.04713421,0.0065185074,0.005735956,0.006076188,0.0117814895,2.909857,0.0040488206,0.0
4.6083937,1.7285391,0.071779594,0.05693193,0.016856559,0.082774684,0.045936834,0.008623195,0.0047628023,0.00876541,0.018418925,2.9086332,0.006332502,0.0
4.617116,1.568801,0.077997334,0.07390779,0.008007818,0.08421732,0.0676878,0.008430705,0.0073674256,0.004164065,0.008264758,2.9060247,0.0028440082,0.0
4.617116,1.568801,0.032206353,0.03769003,0.01143912,0.04671132,0.023185067,0.0029217333,0.004347489,0.005948342,0.011763126,2.9152486,0.0040350333,0.0
4.617116,1.568801,0.060455773,0.04599554,0.017678058,0.072325096,0.034126226,0.007415297,0.0036556376,0.009192589,0.019099435,2.911137,0.006560816,0.0
4.617116,1.568801,0.04253677,0.042246718,0.00937377,0.051766634,0.033016853,0.0044464474,0.004371034,0.00487436,0.0093748905,2.9135742,0.0032176597,0.0
4.617116,1.568801,0.02767705,0.056988485,0.0073026298,0.058707092,0.025958445,0.0005921209,0.0082130935,0.0037973672,0.016374324,2.9135873,0.0056199874,0.0
4.617116,1.568801,0.06689704,0.076370336,0.016011221,0.08833084,0.054936536,0.0062183742,0.0086814305,0.008325835,0.016697153,2.9069963,0.005743782,0.0
4.625,2.1875,0.009434282,0.0065766913,0.007507268,0.01564751,0.00036346307,0.0012040572,0.00046108375,0.003903779,0.0076420233,2.9213095,0.0026159582,0.0
4.6252284,1.3892395,0.07577496,0.07793295,0.015359774,0.09225158,0.061456326,0.007712271,0.008273348,0.007987082,0.015397625,2.9058218,0.0052988883,0.0
4.633341,1.2096779,0.05888735,0.060145207,0.011341369,0.07087508,0.048157487,0.0060261707,0.0063532135,0.0058975113,0.011358796,2.909722,0.003903739,0.0
4.633341,1.2096779,0.07107972,0.045757998,0.01270171,0.07635293,0.040484793,0.009367385,0.0027837362,0.0066048885,0.017934069,2.9099689,0.0061629764,0.0
4.640311,1.0121702,0.043432087,0.03635494,0.0048089693,0.045864083,0.033922948,0.0050689536,0.0032288958,0.0025006637,0.0059705675,2.9141362,0.0020488293,0.0
4.6457415,1.8000278,0.049431033,0.048183277,0.007913692,0.056745403,0.04086891,0.0052381516,0.004913735,0.0041151196,0.007938247,2.912131,0.0027259237,0.0
4.6472807,0.81466246,0.05120325,0.027456846,0.013415857,0.057245355,0.021414746,0.007177356,0.0010032925,0.006976245,0.017915305,2.914263,0.0061474564,0.0
4.6472807,0.81466246,0.06407215,0.047598876,0.0066037504,0.06639258,0.045278445,0.007948417,0.0036653676,0.0034339498,0.010557067,2.9105499,0.0036271727,0.0
4.6472807,0.81466246,0.00735334,0.01697581,0.0033459384,0.01802489,0.00630426,1.4194475e-05,0.0025160369,0.0017398878,0.0058603147,2.920374,0.0020067,0.0
4.6472807,0.81466246,0.037987746,0.034151584,0.014145855,0.050344966,0.021794364,0.0042499453,0.0032525437,0.0073558437,0.014275301,2.9149964,0.0048971935,0.0
4.6472807,0.81466246,0.04021613,0.04657838,0.014416201,0.058160264,0.028634246,0.0036862215,0.005340406,0.007496424,0.014763009,2.913348,0.005067369,0.0
4.6472807,0.81466246,0.010564336,0.015622678,0.007856611,0.021347176,0.0048398385,0.00070414005,0.002019309,0.0040854374,0.008253669,2.9201648,0.0028264394,0.0
4.653027,0.6130615,0.037118334,0.07017258,0.008400335,0.072184905,0.035106,0.0012820751,0.009876179,0.004368174,0.018539453,2.9110427,0.006368664,0.0
4.6544642,1.6402898,0.057541426,0.05383069,0.012692932,0.06851388,0.04285824,0.0062737446,0.0053089536,0.006600324,0.012827819,2.9105835,0.0044073015,0.0
4.6544642,1.6402898,0.027982036,0.04920898,0.0022687567,0.04944876,0.02774226,0.0012544297,0.0067734346,0.0011797533,0.01085325,2.9144282,0.0037239722,0.0
4.658774,0.41146055,0.047209606,0.03818399,0.0071026757,0.05111187,0.034281723,0.0056137964,0.0032671364,0.003693391,0.008415073,2.9135056,0.0028882984,0.0
4.658774,0.41146055,0.03715042,0.016219623,0.009634938,0.040910233,0.012459812,0.005496245,5.4238568e-05,0.005010167,0.014225211,2.9171073,0.0048764786,0.0
4.66272,0.20573027,0.039979663,0.067859195,0.004097395,0.0684489,0.03938995,0.0019832812,0.009231959,0.0021306453,0.014529476,2.910981,0.0049912645,0.0
4.6666665,0.0,0.017118791,0.02687943,0.012791792,0.035690255,0.008307965,0.0010190242,0.00355679,0.006651731,0.013691146,2.9181616,0.0046917023,0.0
4.6666665,0.0,0.032842755,0.0450793,0.016542727,0.056598917,0.021323139,0.0024611962,0.0056426963,0.008602217,0.01763789,2.914346,0.0060520917,0.0
4.6666665,0.0,0.027576568,0.0362855,0.01682226,0.049307737,0.014554333,0.002188666,0.004452988,0.008747574,0.017376702,2.9159274,0.005959237,0.0
4.6707087,2.0741997,0.034410577,0.040050782,0.008732541,0.046407294,0.028054062,0.0031387636,0.004605217,0.004540921,0.009176616,2.914735,0.0031483532,0.0
4.6707087,2.0741997,0.08683082,0.091681525,0.009515081,0.09907549,0.079436846,0.008652048,0.009913233,0.0049478416,0.009819321,2.903032,0.0033824365,0.0
4.6748357,2.0066385,0.06740946,0.06925043,0.009053856,0.07743047,0.05922942,0.0068669883,0.0073456382,0.0047080046,0.009100527,2.9077394,0.00312976,0.0
4.6756635,1.4832176,0.022493957,0.037786204,0.010883255,0.043440774,0.016839385,0.0011465758,0.00512256,0.005659292,0.0133006945,2.91633,0.0045607644,0.0
4.6756635,1.4832176,0.0692954,0.050000902,0.012238427,0.075231746,0.04406455,0.008711691,0.0036951224,0.0063639814,0.015583597,2.9096923,0.0053557544,0.0
4.6789627,1.9390776,0.035856057,0.0287444,0.010920526,0.04378508,0.020815374,0.0042837383,0.002434708,0.0056786733,0.011484853,2.9158442,0.0039387746,0.0
4.6830897,1.8715166,0.067925066,0.056748588,0.008191019,0.07225253,0.05242112,0.007935971,0.005030087,0.0042593298,0.009915704,2.9090874,0.0034085272,0.0
4.6830897,1.8715166,0.071899876,0.06649094,0.007097562,0.076790765,0.061600044,0.007899483,0.0064931605,0.0036907317,0.0075953603,2.9075446,0.0026122937,0.0
4.683776,1.303656,0.03218462,0.019339152,0.011911445,0.03929459,0.012229183,0.0043491465,0.0010093249,0.006193951,0.013532704,2.917315,0.004638753,0.0
4.6875,2.15625,0.034875322,0.036486868,0.016010648,0.051712006,0.019650184,0.0035013321,0.0039203344,0.008325536,0.016030911,2.9150836,0.0054992973,0.0
4.691317,1.1151214,0.026952598,0.052236766,0.008897724,0.05505404,0.024135321,0.0008309051,0.0074047875,0.0046268157,0.015459359,2.9142034,0.0053048315,0.0
4.691812,1.7117785,0.049483307,0.028878735,0.009793262,0.053395275,0.024966765,0.006753419,0.0013962318,0.0050924956,0.014214255,2.9142964,0.0048774225,0.0
4.691812,1.7117785,0.062652335,0.043586355,0.004878003,0.06382789,0.042410806,0.008002988,0.003045834,0.0025365613,0.010708541,2.911161,0.0036784434,0.0
4.698287,0.9176136,0.09266948,0.09077275,0.013632433,0.105386496,0.07805574,0.00978557,0.009292419,0.007088864,0.013665378,2.9024775,0.004708177,0.0
4.698287,0.9176136,0.0655323,0.0788215,0.015606289,0.089138836,0.055214975,0.0057787993,0.0092339935,0.008115269,0.01696193,2.906874,0.0058351103,0.0
4.7078633,0.71530473,0.08859549,0.0865609,0.011925254,0.09954676,0.075609624,0.009372628,0.008843633,0.0062011313,0.011968568,2.9034095,0.004122246,0.0
4.7078633,0.71530473,0.056437444,0.026277646,0.014816939,0.06249862,0.020216472,0.008221958,0.00038041035,0.0077048074,0.021141075,2.913807,0.0072554825,0.0
4.7136097,0.51370376,0.076826274,0.07097639,0.01183144,0.08608896,0.061713703,0.008446222,0.006925253,0.006152348,0.01218763,2.906486,0.0041932524,0.0
4.7184563,0.31003815,0.08348502,0.072014205,0.012704281,0.091688536,0.063810684,0.009577164,0.0065947524,0.0066062254,0.013938926,2.9056203,0.004797229,0.0
4.720984,1.5911471,0.031852487,0.067346744,0.009564065,0.06975977,0.02943946,0.0005441063,0.009772613,0.0049733133,0.020160155,2.9119527,0.0069232425,0.0
4.720984,1.5911471,0.053192668,0.07185795,0.012642382,0.078239255,0.046811365,0.004076144,0.0089291185,0.006574038,0.015713945,2.9090452,0.0054017534,0.0
4.7224026,0.104307875,0.0200042,0.020880464,0.013642188,0.034091555,0.0067931116,0.002012088,0.0022399165,0.007093937,0.0136492215,2.9185116,0.0046767746,0.0
4.7224026,0.104307875,0.03297213,0.064258926,0.011709853,0.06815617,0.029074892,0.0009887314,0.009123297,0.006089123,0.019540638,2.9121742,0.006709982,0.0
4.7291603,1.7832673,0.046778776,0.069342844,0.010977292,0.07380201,0.042319614,0.0031049948,0.008971652,0.0057081915,0.015741197,2.9100494,0.005409254,0.0
4.7291603,1.7832673,0.042790826,0.019730406,0.0047727763,0.043739606,0.018781628,0.006248958,0.00025324916,0.0024818433,0.012478989,2.916078,0.004279374,0.0
4.734211,1.397634,0.058611564,0.05023253,0.0029451344,0.059543166,0.049300928,0.006749166,0.004570618,0.0015314698,0.0051211193,2.910868,0.0017593101,0.0
4.734211,1.397634,0.04439919,0.022935413,0.015023723,0.052130394,0.015204214,0.0062916903,0.0007111077,0.007812335,0.01846309,2.9155366,0.006332656,0.0
4.7423234,1.2180725,0.03806331,0.028519962,0.009339243,0.043779265,0.02280401,0.004702965,0.0022216944,0.004856406,0.010487627,2.9156213,0.0035970472,0.0
4.7423234,1.2180725,0.045725096,0.05981899,0.0059398552,0.061988406,0.043555684,0.0036560853,0.007320498,0.0030887243,0.009216361,2.9112391,0.0031657862,0.0
4.7492933,1.0205648,0.02883435,0.012986339,0.011620215,0.034975167,0.0068455217,0.004234917,0.0001144341,0.006042511,0.014064822,2.9184065,0.00481935,0.0
4.7492933,1.0205648,0.08610862,0.08946883,0.014827274,0.10271088,0.07286657,0.008693199,0.009566854,0.0077101816,0.014922157,2.903362,0.005139613,0.0
4.75,2.125,0.056220073,0.043695956,0.0058959406,0.058558915,0.04135711,0.006823768,0.0035674977,0.0030658888,0.008600902,2.9118721,0.002953736,0.0
4.75,2.125,0.014293368,0.01903582,0.005018771,0.02221534,0.011113849,0.0011165988,0.0023496363,0.0026097607,0.005550746,2.9193616,0.001901356,0.0
4.75,2.125,0.05007265,0.06177829,0.0070517706,0.06508969,0.04676125,0.004294515,0.007337981,0.0036669204,0.00916422,2.9105299,0.003148643,0.0
4.754127,2.057439,0.011536571,0.0088279145,0.009746049,0.020021942,0.00034254417,0.0014110784,0.0007068278,0.005067945,0.009839699,2.9208198,0.003368814,0.0
4.754127,2.057439,0.03627929,0.0641306,0.006026167,0.065378554,0.035031334,0.001600644,0.008841983,0.0031336066,0.01517361,2.9118166,0.005211046,0.0
4.758254,1.9898779,0.052325852,0.04669628,0.009542779,0.05946032,0.039561816,0.0058809947,0.0044173053,0.0049622445,0.009949252,2.9119728,0.0034166707,0.0
4.758254,1.9898779,0.06351419,0.032384764,0.012046347,0.06763132,0.02826764,0.009033569,0.00093992014,0.0062641,0.01968184,2.912324,0.006758122,0.0
4.7583323,1.6626358,0.04536145,0.0686755,0.0054620183,0.0698917,0.044145253,0.0028990945,0.008960747,0.0028402493,0.012873223,2.9102838,0.0044233566,0.0
4.7612543,0.82236606,0.06480305,0.028276695,0.011328229,0.06803109,0.025048656,0.009588571,9.172038e-05,0.0058906786,0.021491215,2.912641,0.0073786005,0.0
4.7612543,0.82236606,0.069879994,0.04995611,0.0062702764,0.07168906,0.048147045,0.0088215815,0.0036413714,0.0032605433,0.011771008,2.9096317,0.004045532,0.0
4.762381,1.922317,0.068596885,0.050810833,0.0071065794,0.07108759,0.048320122,0.008521386,0.003897014,0.003695421,0.011383735,2.90968,0.0039123665,0.0
4.762381,1.922317,0.058327716,0.061621018,0.00135901,0.0621094,0.05783933,0.0058092037,0.0066654626,0.0007066851,0.0021350347,2.9096189,0.000733785,0.0
4.766508,1.854756,0.0673989,0.06237559,0.008264955,0.07352541,0.056249075,0.007401303,0.006095242,0.004297776,0.008638166,2.9085138,0.0029699588,0.0
4.766508,1.854756,0.04054131,0.02618722,0.017894115,0.05264403,0.014084501,0.005335915,0.0016038516,0.009304939,0.019279763,2.9156048,0.006612612,0.0
4.766508,1.854756,0.05664521,0.045356512,0.00976876,0.06228303,0.039718695,0.006771619,0.0038365584,0.0050797546,0.011282168,2.9116375,0.0038748533,0.0
4.766508,1.854756,0.025102958,0.026096769,0.00851262,0.034126975,0.017072752,0.0025331902,0.0027915807,0.0044265618,0.008527111,2.9173515,0.0029228947,0.0
4.766508,1.854756,0.043463048,0.059349764,0.010567254,0.06462623,0.03818658,0.0032809922,0.0074115386,0.0054949718,0.013219826,2.9115462,0.004540483,0.0
4.768446,0.61594695,0.07146818,0.08389748,0.007934891,0.08776174,0.06760392,0.006463204,0.009694822,0.0041261427,0.010078907,2.9056354,0.0034687447,0.0
4.768446,0.61594695,0.06317156,0.042069267,0.0026242132,0.063493,0.041747823,0.0082158195,0.0027292245,0.0013645907,0.010872588,2.9112732,0.0037346503,0.0
4.7741923,0.414346,0.035755824,0.027272062,0.01696691,0.049003072,0.014024818,0.004380339,0.0021745604,0.008822792,0.017489128,2.916021,0.0059976,0.0
4.7741923,0.414346,0.08215144,0.08330716,0.010689156,0.093434066,0.07202454,0.008453603,0.0087540895,0.005558361,0.010704763,2.9045002,0.0036855782,0.0
4.7781386,0.20861575,0.009172012,0.02075597,0.010725816,0.027153749,0.0027742358,5.034033e-05,0.0030621695,0.0055774236,0.012189757,2.919744,0.0041749403,0.0
4.7781386,0.20861575,0.08138272,0.0897425,0.011527647,0.09782467,0.07330055,0.007811739,0.009985281,0.005994376,0.012262061,2.903863,0.004222672,0.0
4.7795315,1.5055636,0.024227211,0.0417224,0.0031278015,0.042264774,0.023684837,0.0011550051,0.0057037533,0.0016264566,0.009289969,2.9156926,0.0031861963,0.0
4.7833333,0.0,0.056188624,0.07006706,0.01206745,0.0770482,0.049207497,0.004761098,0.008369491,0.0062750736,0.01392035,2.9089096,0.0047854185,0.0
4.7927585,1.3120506,0.028034667,0.013691812,0.011240216,0.034196347,0.0075301295,0.0040343474,0.00030520573,0.0058449116,0.013333108,2.918417,0.00456861,0.0
4.7927585,1.3120506,0.033957284,0.03347267,0.008891331,0.04260961,0.024820345,0.003569357,0.003443357,0.004623492,0.008894633,2.915526,0.0030507816,0.0
4.79568,1.7341245,0.023215758,0.040950634,0.015583227,0.050012738,0.014153654,0.0010311181,0.0056421855,0.0081032775,0.017929543,2.915893,0.0061489027,0.0
4.8002996,1.123516,0.07907361,0.05832163,0.010038041,0.083134495,0.05426074,0.009842308,0.0044467943,0.0052197804,0.014436878,2.9076567,0.0049651247,0.0
4.8002996,1.123516,0.039425336,0.03759036,0.011023123,0.04956909,0.027446609,0.0042433627,0.0037662685,0.005732023,0.01106124,2.9144478,0.0037953125,0.0
4.8122606,0.9253172,0.054647215,0.07323428,0.006449088,0.07525271,0.052628785,0.0042335186,0.009066155,0.0033535254,0.011311963,2.9087267,0.0038889742,0.0
4.8125,2.09375,0.04032005,0.036410455,0.017208096,0.055684023,0.021046482,0.0044982326,0.0034817385,0.008948209,0.01731877,2.91448,0.005942319,0.0
4.816627,2.026189,0.04866235,0.056107573,0.017241286,0.07002355,0.03474637,0.004480156,0.0064159143,0.008965468,0.01763859,2.9113262,0.00605861,0.0
4.820754,1.9586279,0.045298643,0.07076075,0.0134036075,0.07651581,0.039543584,0.0027250138,0.009345162,0.006969875,0.018486112,2.9100564,0.006352493,0.0
4.8218365,0.7230083,0.017756185,0.0208838,0.006132619,0.025648857,0.0129911285,0.001602689,0.002415869,0.0031889617,0.006328864,2.918764,0.0021683369,0.0
4.824852,1.6134931,0.04624763,0.021175116,0.012407125,0.051349245,0.016073503,0.006765409,0.00024655592,0.0064517045,0.017637871,2.9155269,0.0060496344,0.0
4.824852,1.6134931,0.050615378,0.065920755,0.0053509064,0.067605935,0.048930194,0.0040701795,0.008049577,0.002782471,0.00933787,2.9100027,0.0032088873,0.0
4.824881,1.891067,0.047652975,0.047390398,0.005194232,0.052717578,0.0423258,0.0049763895,0.00490812,0.0027010003,0.0051958896,2.9124203,0.0017840452,0.0
4.824881,1.891067,0.030167699,0.0132428445,0.008059216,0.033391315,0.010019227,0.004457579,5.7117006e-05,0.004190792,0.011686044,2.9182277,0.0040045003,0.0
4.829028,0.5165892,0.04566212,0.060764134,0.011785931,0.06721048,0.039215773,0.003570903,0.0074974257,0.0061286837,0.013997354,2.91114,0.004808204,0.0
4.829028,0.5165892,0.02682729,0.060527578,0.0071254466,0.061972223,0.025382645,0.00016141539,0.00892349,0.003705232,0.018294789,2.913285,0.00627978,0.0
4.8330283,1.8056133,0.01018494,0.020816036,0.010970971,0.027691355,0.0033096205,0.00023000831,0.0029940926,0.005704904,0.012190867,2.9196234,0.004175493,0.0
4.8330283,1.8056133,0.07021684,0.06589027,0.006174151,0.07459573,0.06151139,0.0076400233,0.0065151136,0.003210558,0.0065421686,2.9078016,0.0022498677,0.0
4.8338747,0.3129236,0.044965573,0.022195857,0.0095206695,0.048421808,0.018739616,0.006452456,0.0005323313,0.004950748,0.014841096,2.9155562,0.0050903135,0.0
4.8338747,0.3129236,0.047592495,0.05300262,0.007718375,0.058476232,0.042118885,0.0045276294,0.005934261,0.0040135547,0.008178674,2.9117959,0.0028088074,0.0
4.838079,1.41998,0.040912423,0.06813008,0.010340423,0.07161291,0.0374296,0.0021319143,0.009208505,0.0053770198,0.017091654,2.9108455,0.0058717146,0.0
4.8390694,0.104307875,0.060922183,0.04045686,0.018308865,0.07166384,0.029715206,0.007932201,0.0026112178,0.009520609,0.020974318,2.9117076,0.007203442,0.0
4.851306,1.2264671,0.038158122,0.03764475,0.011203666,0.049108043,0.026694832,0.0040084873,0.0038750104,0.005825906,0.0112066055,2.9145842,0.0038450102,0.0
4.851306,1.2264671,0.03218357,0.037578348,0.0035308418,0.03932424,0.030437676,0.0029262984,0.00432894,0.0018360375,0.0044432813,2.9152637,0.0015241439,0.0
4.851306,1.2264671,0.060067397,0.032747142,0.0073635746,0.061925687,0.030888848,0.008377988,0.0012747226,0.0038290585,0.015518419,2.9126709,0.0053279,0.0
4.851306,1.2264671,0.04703118,0.05326287,0.010845776,0.0614315,0.038862552,0.00440517,0.00602541,0.0056398027,0.011284474,2.9118297,0.0038753895,0.0
4.851306,1.2264671,0.037359975,0.045609694,0.008944858,0.051334955,0.03163471,0.003241959,0.0053868853,0.0046513258,0.009850122,2.9137783,0.0033805324,0.0
4.851306,1.2264671,0.06976147,0.037980016,0.018600205,0.07833465,0.029406836,0.009734144,0.0014709684,0.009672105,0.024463907,2.910992,0.008403976,0.0
4.8622003,1.6849818,0.036876276,0.01609678,0.005109583,0.038064726,0.014908328,0.0054559326,5.3264554e-05,0.002656983,0.0115781985,2.9171522,0.003969007,0.0
4.863267,1.0282683,0.029729486,0.020419441,0.01045741,0.03652115,0.013627776,0.0038180493,0.0013974383,0.0054378523,0.011446688,2.9174697,0.0039234986,0.0
4.875,2.0625,0.035412222,0.037230156,0.0058403425,0.042231843,0.030410536,0.0035410717,0.0040137344,0.0030369777,0.0059106536,2.9149396,0.0020277104,0.0
4.8752275,0.8300696,0.04195016,0.032020263,0.016497687,0.054213803,0.019756619,0.0051373476,0.002555575,0.008578796,0.017228592,2.9147904,0.005910748,0.0
4.8752275,0.8300696,0.048036713,0.062189467,0.005657678,0.06417314,0.046053044,0.0038919025,0.0075716185,0.0029419924,0.009060048,2.9107125,0.0031126563,0.0
4.879127,1.994939,0.081083246,0.066668056,0.012512818,0.088315874,0.059435427,0.009557041,0.005809092,0.0065066647,0.014440224,2.9064918,0.004968266,0.0
4.882419,0.62365055,0.06399027,0.027982522,0.0147965485,0.06929042,0.022682378,0.009463591,0.00010157799,0.0076942043,0.023304023,2.9127655,0.008000652,0.0
4.883254,1.9273779,0.036091223,0.0470262,0.00018160089,0.047029216,0.03608821,0.0029005588,0.0057436517,9.443245e-05,0.005470503,2.9137616,0.0018774711,0.0
4.883254,1.9273779,0.025675222,0.040878665,0.0057813977,0.042827375,0.023726515,0.0014843544,0.005437249,0.0030063265,0.00955043,2.9156246,0.0032756033,0.0
4.8833995,1.5279095,0.002019552,0.003200169,0.016361373,0.018981878,-0.013762157,0.000117945274,0.00042490562,0.008507913,0.016372018,2.9225233,0.0056020143,0.0
4.889611,0.4172315,0.027786111,0.028722042,0.009605619,0.03787109,0.018637065,0.0028167525,0.0030600945,0.0049949214,0.009617012,2.9167545,0.003297162,0.0
4.889611,0.4172315,0.03229593,0.047441073,0.012483109,0.054468907,0.025268098,0.0021774557,0.0061151916,0.006491216,0.014600405,2.914142,0.00501019,0.0
4.889611,0.4172315,0.051042024,0.05609066,0.006229978,0.06028831,0.046844378,0.004914576,0.0062272213,0.0032395883,0.006721966,2.9110603,0.0023091126,0.0
4.889611,0.4172315,0.019932149,0.013083992,0.009684506,0.026780069,0.0062360717,0.0026070992,0.0008265787,0.0050359424,0.010271998,2.9193966,0.0035185346,0.0
4.889611,0.4172315,0.05098497,0.0684838,0.009444946,0.07260914,0.046859633,0.0039375285,0.008487222,0.0049113715,0.012874754,2.909673,0.0044248113,0.0
4.889611,0.4172315,0.07301927,0.08111706,0.009251201,0.08716659,0.06696974,0.0069623757,0.0090678,0.004810624,0.0100984275,2.9057736,0.0034752975,0.0
4.8914013,1.8419242,0.047535934,0.03588794,0.015545514,0.0583126,0.025111277,0.0058522797,0.002823802,0.008083667,0.016600661,2.913727,0.0056973975,0.0
4.8948054,0.20861575,0.06836059,0.06684239,0.011563605,0.07918998,0.056012996,0.007227919,0.006833189,0.006013074,0.0115884915,2.9079032,0.003985171,0.0
4.8966265,1.3343966,0.081498764,0.06219541,0.008680428,0.08482803,0.05886615,0.009981532,0.0049626604,0.0045138225,0.012980938,2.906948,0.004465487,0.0
4.8966265,1.3343966,0.03682251,0.05315309,0.017984096,0.064738736,0.025236858,0.0025557547,0.006801706,0.009351729,0.019750938,2.91299,0.006780297,0.0
4.899548,1.7564706,0.028368805,0.02107251,0.012659304,0.03789514,0.011546177,0.003519466,0.00162243,0.0065828376,0.013174482,2.9175494,0.0045155985,0.0
4.899548,1.7564706,0.022544388,0.012892272,0.012950885,0.031539194,0.0038974667,0.003097481,0.0005879311,0.0067344597,0.013820864,2.9191246,0.004734592,0.0
4.9,0.0,0.061089132,0.038172636,0.013696912,0.067488566,0.031773202,0.008140756,0.0021824667,0.007122393,0.017857682,2.9119458,0.00613256,0.0
4.9142733,1.1312195,0.029070895,0.057938635,0.0018728921,0.05805964,0.028949894,0.00077168917,0.008277301,0.0009739038,0.014554873,2.9133239,0.004995968,0.0
4.9142733,1.1312195,0.02431676,0.04058766,0.009197787,0.044731658,0.020172764,0.0012598125,0.005490246,0.004782849,0.012279447,2.91581,0.004211333,0.0
4.926234,0.9330208,0.020805271,0.013330141,0.0102080265,0.027938455,0.006196956,0.002746808,0.00080327434,0.005308173,0.010870749,2.9192708,0.0037237892,0.0
4.9287205,1.6358391,0.0145337,0.019113777,0.015341302,0.03233502,0.001312458,0.0011542586,0.0023450786,0.007977476,0.015511282,2.9193258,0.0053133094,0.0
4.9287205,1.6358391,0.044470146,0.032942064,0.0049003637,0.046271667,0.031140544,0.0055240844,0.002526784,0.002548189,0.0075655617,2.9144032,0.0025959215,0.0
4.93581,0.7307119,0.056723118,0.030093577,0.013876389,0.062639505,0.024177196,0.0079763075,0.0010526276,0.0072157215,0.019231156,2.9133456,0.0066010556,0.0
4.9375,2.03125,0.056420606,0.055464994,0.006543466,0.06250369,0.04938191,0.0059422795,0.0056938212,0.003402602,0.006560888,2.9105258,0.0022541934,0.0
4.941627,1.963689,0.07296418,0.071996145,0.012641516,0.08513094,0.05982938,0.0076637804,0.007412091,0.0065735877,0.0126507785,2.9068058,0.004352124,0.0
4.941627,1.963689,0.035303164,0.025464654,0.0075712027,0.03941287,0.021354945,0.004438932,0.0018809199,0.003937025,0.009028963,2.9162753,0.00309606,0.0
4.941947,1.4423261,0.04974633,0.050771948,0.00950601,0.059778973,0.040739305,0.0050936197,0.0053602797,0.004943125,0.009519834,2.9118044,0.0032693935,0.0
4.941947,1.4423261,0.05432937,0.023577033,0.0071212295,0.05589836,0.022008039,0.008048936,5.3328797e-05,0.003703039,0.01694516,2.9143476,0.0058143926,0.0
4.9430017,0.5242928,0.05537184,0.07087373,0.010708213,0.07634182,0.04990375,0.004549523,0.008580014,0.00556827,0.013219036,2.9089108,0.004544325,0.0
4.9430017,0.5242928,0.05664749,0.040553994,0.0073878686,0.059524603,0.03767688,0.007146631,0.0029623222,0.0038416914,0.010923862,2.9121776,0.0037510977,0.0
4.9497743,1.8782352,0.029601451,0.017345076,0.0055737244,0.03175705,0.015189478,0.0040345476,0.0008478907,0.0028983364,0.008283786,2.91783,0.0028390228,0.0
4.9505415,0.3129236,0.06666849,0.07561124,0.012622485,0.08453092,0.05774881,0.006235987,0.008561103,0.0065636914,0.013391055,2.9071074,0.004606316,0.0
4.9505415,0.3129236,0.0405775,0.028770404,0.012034816,0.048078753,0.021269152,0.0051410133,0.002071168,0.0062581035,0.013404801,2.9153104,0.00459807,0.0
4.955736,0.104307875,0.045323417,0.03949659,0.012475618,0.055221286,0.029598717,0.0051681274,0.0036531521,0.0064873206,0.0128112845,2.9135702,0.0043971087,0.0
4.957921,1.7927815,0.05215158,0.0335341,0.010433497,0.056825347,0.02886033,0.006875927,0.002035382,0.005425418,0.013982508,2.9134727,0.0047992584,0.0
4.961557,1.2395169,0.035595614,0.03266034,0.009369748,0.04361197,0.024643984,0.0039308947,0.0031677235,0.0048722685,0.009483993,2.9154332,0.0032530306,0.0
4.961557,1.2395169,0.03245337,0.05488478,0.009156169,0.058147594,0.029190555,0.0016255,0.007457666,0.0047612074,0.01447852,2.913287,0.0049698227,0.0
4.9660683,1.7073278,0.063094184,0.06975909,0.016488846,0.08324886,0.04960441,0.006041931,0.0077748075,0.008574199,0.016822226,2.9081676,0.005784476,0.0
4.9660683,1.7073278,0.06723686,0.04845137,0.013810655,0.07454615,0.041142084,0.008457901,0.0035736735,0.00718154,0.016702034,2.910098,0.005739337,0.0
4.97724,1.035972,0.030653426,0.036945984,0.0032899359,0.03835193,0.02924748,0.0026971367,0.004333201,0.0017107665,0.0045522256,2.915507,0.0015613838,0.0
4.97724,1.035972,0.027288774,0.016666712,0.0059062033,0.029920682,0.014034804,0.0036665527,0.0009048172,0.0030712255,0.007942939,2.9181664,0.0027218938,0.0
4.987268,1.5502555,0.035811167,0.05139337,0.009800506,0.056122303,0.031082237,0.002508949,0.006560322,0.0050962623,0.012520033,2.913302,0.0042975405,0.0
4.987268,1.5502555,0.05717026,0.025246087,0.0035633645,0.057563167,0.024853181,0.008435791,0.00013550761,0.0018529494,0.016354993,2.9138405,0.0056128646,0.0
4.989201,0.8377732,0.081395835,0.06339936,0.00686855,0.083717726,0.061077468,0.009868891,0.005189807,0.0035716458,0.011320129,2.9068244,0.0038943286,0.0
4.989201,0.8377732,0.010503203,0.012803092,0.008695917,0.020424768,0.002881526,0.0009129417,0.0015109126,0.0045218766,0.008771621,2.9204888,0.003003477,0.0
4.9963927,0.63135415,0.046952657,0.029621104,0.009127679,0.050872993,0.025700767,0.0062349364,0.0017287335,0.004746393,0.012586113,2.9144976,0.00431845,0.0
4.9963927,0.63135415,0.0680571,0.06778543,0.009437413,0.077359654,0.058482874,0.0070991274,0.007028493,0.0049074544,0.00943839,2.9078312,0.0032458522,0.0
5.0,2.0,0.08669235,0.07485594,0.0012863139,0.08683053,0.07471776,0.009939242,0.0068617766,0.00066888315,0.0060563833,2.9049401,0.0020848564,0.0
5.0,2.0,0.06193169,0.07644743,0.009322683,0.08100434,0.05737477,0.0053086667,0.009082759,0.004847795,0.011814782,2.907546,0.0040634894,0.0
5.0,2.0,0.058649376,0.06624957,0.01176136,0.07480951,0.050089445,0.005506719,0.00748277,0.0061159064,0.012360031,2.9090621,0.0042488026,0.0
5.0068774,1.3474464,0.07196121,0.079178385,0.010455639,0.08663064,0.064508945,0.006921025,0.00879749,0.0054369317,0.011060849,2.9061108,0.0038060658,0.0
5.007024,0.42237884,0.024042765,0.05249957,0.017117914,0.06053033,0.016012002,0.00028081663,0.007679585,0.008901315,0.022259165,2.9145012,0.007637384,0.0
5.007024,0.42237884,0.026414318,0.05252627,0.0074825007,0.054518424,0.02442216,0.0007103565,0.0074994634,0.0038909,0.015048132,2.9142313,0.005163671,0.0
5.0081472,1.9145463,0.021362523,0.034919005,0.0034494638,0.035746247,0.020535283,0.0011642965,0.0046889815,0.001793721,0.007605482,2.91678,0.0026074925,0.0
5.0081472,1.9145463,0.055803448,0.05578621,0.013852423,0.06964725,0.041942403,0.0058049024,0.0058004204,0.0072032595,0.013852425,2.9105592,0.004759369,0.0
5.011472,0.20861575,0.048696868,0.04458834,0.011988076,0.058805414,0.03447979,0.0053849393,0.004316721,0.0062337993,0.012162812,2.912618,0.0041759037,0.0
5.011472,0.20861575,0.050011344,0.03610423,0.012381279,0.05725807,0.028857501,0.0062859347,0.0026700837,0.0064382646,0.014200284,2.9134243,0.0048740874,0.0
5.016294,1.8290925,0.028257657,0.02533651,0.00859558,0.03551587,0.018078294,0.0031666453,0.002407147,0.004469701,0.008718789,2.9170823,0.002988873,0.0
5.016294,1.8290925,0.022666737,0.011283113,0.009071277,0.027684025,0.0062658265,0.0032452631,0.0002855208,0.0047170636,0.0107090995,2.9192917,0.0036683895,0.0
5.016667,0.0,0.03047855,0.06298626,0.0100523485,0.0658436,0.027621219,0.00063416763,0.009086171,0.0052272207,0.01911119,2.9125977,0.006561562,0.0
5.0244412,1.7436388,0.034295227,0.032276016,0.012301561,0.045628544,0.0209427,0.0037242013,0.003199207,0.0063968115,0.012342922,2.9156227,0.0042333743,0.0
5.0244412,1.7436388,0.03771004,0.045179203,0.010918266,0.052983932,0.029905314,0.0033392487,0.0052812314,0.005677498,0.011539309,2.9137871,0.0039602444,0.0
5.024524,1.1442693,0.0513926,0.049351163,0.008083534,0.058519606,0.042224158,0.005504062,0.004973288,0.0042034374,0.008147724,2.911779,0.0027981945,0.0
5.0325885,1.6581851,0.05315473,0.07526202,0.014458295,0.082407966,0.046008777,0.0038037228,0.009551617,0.007518313,0.018199595,2.9086666,0.006257023,0.0
5.0325885,1.6581851,0.06983362,0.04986157,0.011730545,0.075252995,0.04444219,0.008820516,0.003627782,0.006099883,0.015405402,2.9096475,0.005294594,0.0
5.0325885,1.6581851,0.03502603,0.042489827,0.009300896,0.048779592,0.028736264,0.0030605302,0.0050011175,0.004836465,0.010021664,2.9143915,0.0034386816,0.0
5.0325885,1.6581851,0.037013993,0.025244942,0.008436657,0.041415617,0.020843321,0.0047674407,0.0017074876,0.004387061,0.010286148,2.9161077,0.0035273554,0.0
5.0325885,1.6581851,0.052045316,0.06424869,0.008024447,0.06822779,0.048066214,0.0044608493,0.007633725,0.004172712,0.010080788,2.9100301,0.0034641526,0.0
5.0325885,1.6581851,0.052195605,0.06600557,0.015636023,0.07619339,0.042007785,0.004351164,0.007941756,0.008130731,0.017092803,2.9098155,0.005874188,0.0
5.0325885,1.6581851,0.07432224,0.050543293,0.0037132143,0.07488859,0.049976945,0.0095842695,0.0034017442,0.0019308713,0.012455821,2.909066,0.0042817253,0.0
5.0402074,0.9407244,0.07420881,0.08507619,0.010202289,0.09120156,0.06808345,0.0068700593,0.009695578,0.0053051896,0.011559054,2.9051945,0.003978754,0.0
5.0402074,0.9407244,0.05923616,0.034220498,0.0086903395,0.06195882,0.031497836,0.008111781,0.0016077097,0.004518976,0.015230492,2.9125986,0.0052291765,0.0
5.049783,0.7384155,0.042695545,0.05566283,0.00893212,0.060216416,0.038141962,0.003428888,0.0068003815,0.004644702,0.011037227,2.9120474,0.0037901949,0.0
5.049783,0.7384155,0.08068762,0.064734615,0.012930727,0.087904155,0.057518084,0.009635846,0.0054880646,0.006723977,0.015193036,2.9067538,0.0052268053,0.0
5.052198,1.4553759,0.024497053,0.056486316,0.008954619,0.058822352,0.022161018,5.253085e-05,0.008369738,0.0046564015,0.018330667,2.9140017,0.006290548,0.0
5.060415,0.52944016,0.07840267,0.056596775,0.0041924845,0.07918095,0.055818487,0.009854736,0.004185204,0.0021800918,0.011681231,2.907926,0.0040170318,0.0
5.0635777,2.0,0.06559783,0.058394466,0.009987483,0.07261321,0.05137909,0.0073840353,0.0055111614,0.0051934905,0.010617061,2.9091642,0.0036495226,0.0
5.0679545,0.31807095,0.026878322,0.032610636,0.0061706384,0.036548276,0.022940684,0.0023482244,0.0038386264,0.0032087315,0.0068037957,2.9164193,0.002332928,0.0
5.071725,1.9145463,0.02185699,0.03444748,0.00952434,0.039569028,0.016735442,0.0012910685,0.0045645954,0.004952656,0.011416793,2.9167774,0.00391418,0.0
5.071808,1.2525667,0.0812913,0.08816234,0.0005359875,0.08820391,0.08124974,0.007918353,0.009704823,0.00027871347,0.0034770817,2.9040508,0.0011973212,0.0
5.071808,1.2525667,0.030968277,0.045466553,0.0059105614,0.047570743,0.028864086,0.0020898345,0.0058593866,0.0030734916,0.0093533285,2.914513,0.0032092251,0.0
5.0724025,0.104307875,0.029561637,0.06343898,0.013542329,0.06818701,0.024813604,0.00043197724,0.009240085,0.0070420103,0.021686705,2.9126499,0.007445696,0.0
5.0724025,0.104307875,0.022900848,0.04737103,0.0077476427,0.04961777,0.020654108,0.00047301385,0.0068352604,0.004028774,0.014481831,2.9152064,0.0049676863,0.0
5.0798717,1.8290925,0.056889586,0.03745471,0.013844133,0.0640863,0.030257992,0.0074324366,0.002379369,0.007198949,0.016914155,2.9124987,0.005807438,0.0
5.087491,1.0490217,0.04019316,0.061570503,0.0116590485,0.066698946,0.03506472,0.0025126552,0.008070764,0.0060627046,0.015817113,2.9116642,0.0054323273,0.0
5.088019,1.7436388,0.064175606,0.08087921,0.006497323,0.083108895,0.061945923,0.005371381,0.0097143175,0.0033786076,0.010581486,2.906795,0.0036402587,0.0
5.088019,1.7436388,0.073316835,0.0747198,0.006073578,0.08013227,0.06790436,0.0075155185,0.007880289,0.0031582601,0.006113954,2.9064598,0.002103574,0.0
5.097519,1.5633054,0.053160943,0.053962216,0.008685725,0.062256537,0.04486662,0.005466238,0.005674569,0.0045165764,0.008694958,2.9110615,0.0029868684,0.0
5.097519,1.5633054,0.038816337,0.06996027,0.0089780195,0.072363034,0.03641357,0.0016076724,0.009705093,0.0046685697,0.017974732,2.9108756,0.006175026,0.0
5.103174,0.8454768,0.059748087,0.028125493,0.0040205247,0.060251255,0.027622323,0.008680362,0.0004584887,0.0020906727,0.016314466,2.9132266,0.0056001362,0.0
5.103174,0.8454768,0.06869262,0.05689848,0.010036482,0.07443627,0.05115483,0.008063974,0.0049974984,0.00521897,0.01164072,2.9089844,0.004001644,0.0
5.103174,0.8454768,0.05666091,0.07805953,0.017454116,0.087832674,0.046887767,0.0042236415,0.009787282,0.009076139,0.020472454,2.9079576,0.0070401486,0.0
5.103174,0.8454768,0.0849289,0.08476864,0.0049241176,0.089773536,0.079924,0.008845105,0.0088034365,0.0025605408,0.0049247667,2.9040234,0.0016958426,0.0
5.103174,0.8454768,0.088821,0.08187387,0.006377577,0.09260961,0.078085266,0.009779258,0.007973006,0.0033163396,0.0072621703,2.9039114,0.0025008237,0.0
5.103174,0.8454768,0.08045309,0.063678645,0.013313301,0.087800846,0.05633089,0.009675527,0.0053141713,0.0069229156,0.015734978,2.906899,0.005412977,0.0
5.113806,0.6365015,0.016876625,0.036241807,0.0066947863,0.038330905,0.014787523,0.0002446847,0.0052796314,0.0034812884,0.011771691,2.9171357,0.0040353592,0.0
5.1171284,1.3604962,0.07410072,0.081785,0.01073627,0.08934591,0.06653982,0.007107099,0.009105014,0.0055828597,0.011403047,2.905577,0.003924538,0.0
5.1244373,0.42752615,0.08854374,0.090816796,0.007837374,0.09759962,0.08176092,0.00903125,0.009622243,0.004075434,0.007919349,2.9029365,0.0027280475,0.0
5.1244373,0.42752615,0.061569065,0.037538674,0.010179774,0.06530166,0.033806086,0.008277552,0.0020296508,0.005293482,0.015747786,2.911963,0.005407962,0.0
5.1271553,2.0,0.048144322,0.023593895,0.010457579,0.05199492,0.019743294,0.006921942,0.0005388314,0.005437941,0.016125813,2.9150414,0.0055319327,0.0
5.1288853,0.21376307,0.07627199,0.05169314,0.01335517,0.082131684,0.045833442,0.009849436,0.0034589358,0.006944688,0.01814912,2.9087174,0.0062395614,0.0
5.133333,0.0,0.058891535,0.03683792,0.013066002,0.06496183,0.030767625,0.007844901,0.0021109614,0.0067943204,0.0170971,2.912343,0.005870566,0.0
5.133333,0.0,0.043246374,0.022336505,0.008561273,0.046304435,0.019278444,0.006128592,0.00069202675,0.0044518616,0.013512995,2.9157338,0.0046345093,0.0
5.133333,0.0,0.07263551,0.0497999,0.01549396,0.08046424,0.04197117,0.009335269,0.0033980114,0.008056859,0.019246534,2.9093392,0.0066154315,0.0
5.134775,1.1573191,0.026603889,0.04880964,0.009055792,0.0520344,0.023379125,0.0010347555,0.00680825,0.0047090114,0.014327638,2.914628,0.0049157687,0.0
5.1353025,1.9145463,0.06423083,0.06407224,0.010865476,0.075017296,0.053285766,0.0066923755,0.0066511417,0.005650047,0.010865765,2.9086792,0.0037356352,0.0
5.1360803,1.6633077,0.055868402,0.07846103,0.009498459,0.08192369,0.05240574,0.004048088,0.009922171,0.0049391985,0.014758976,2.9080014,0.0050752987,0.0
5.1360803,1.6633077,0.0727521,0.04611192,0.009242578,0.075644664,0.043219358,0.009644151,0.002717705,0.0048061404,0.016212653,2.909741,0.0055718548,0.0
5.14345,1.8290925,0.043552715,0.021393692,0.007173262,0.045672115,0.01927429,0.0062578856,0.0004965398,0.003730096,0.013198912,2.9158053,0.004526678,0.0
5.14345,1.8290925,0.06119005,0.05659738,0.008860912,0.068047345,0.04974009,0.0067219925,0.0055278987,0.0046076737,0.009153627,2.909862,0.0031457255,0.0
5.1504583,0.95377415,0.03388919,0.03187413,0.008492378,0.041433595,0.024329728,0.0036816492,0.003157735,0.004416036,0.008551934,2.9157135,0.00293305,0.0
5.1504583,0.95377415,0.047867164,0.03143056,0.0035569153,0.048603866,0.030693855,0.0062602395,0.001986723,0.0018495958,0.008955006,2.9141912,0.0030728956,0.0
5.162449,1.4684256,0.0078615425,0.009268966,0.010253107,0.018842483,-0.0017119739,0.0007078213,0.0010737512,0.005331615,0.010277228,2.9211836,0.0035181728,0.0
5.162449,1.4684256,0.040952448,0.069388814,0.010604845,0.07290815,0.037433118,0.0020410174,0.009434472,0.005514519,0.017737515,2.9106996,0.006093901,0.0
5.1671968,0.7435628,0.03324309,0.033918668,0.006224608,0.039814644,0.02734711,0.0034045859,0.003580236,0.0032367958,0.0062337667,2.9155562,0.0021381055,0.0
5.1671968,0.7435628,0.058987707,0.030109862,0.013118622,0.06405726,0.025040306,0.008387193,0.000878953,0.0068216827,0.019508477,2.913089,0.006696835,0.0
5.1778283,0.5345875,0.04298461,0.07122178,0.013442141,0.07659744,0.03760895,0.0022678997,0.009609562,0.0069899126,0.019494243,2.9102647,0.006698443,0.0
5.182059,1.2656165,0.047298644,0.056253076,0.012970752,0.06549759,0.038054127,0.004220613,0.0065487646,0.0067447904,0.013721732,2.9114633,0.004713002,0.0
5.182059,1.2656165,0.06637307,0.08328949,0.01473597,0.09182216,0.057840392,0.0055833184,0.009981586,0.0076627037,0.016990885,2.906277,0.0058462718,0.0
5.185368,0.3232183,0.03798537,0.045570616,0.0056304415,0.048566647,0.034989335,0.0033588288,0.0053309924,0.0029278293,0.006788656,2.9137123,0.0023298992,0.0
5.189816,0.109455206,0.024984723,0.025476132,0.011780866,0.037013855,0.013446998,0.0025600812,0.002687847,0.00612605,0.0117834285,2.9174347,0.004038969,0.0
5.189816,0.109455206,0.04396405,0.025581215,0.006352294,0.04594554,0.023599729,0.006006122,0.0012265848,0.0033031926,0.011172906,2.9152882,0.0038325218,0.0
5.190733,2.0,0.06715279,0.06434062,0.0066226143,0.07251695,0.058976475,0.007203239,0.0064720744,0.0034437592,0.0067702364,2.9083204,0.0023278852,0.0
5.191511,1.7487614,0.058765903,0.04291268,0.0051834867,0.06031028,0.0413683,0.0073482045,0.0032263666,0.0026954128,0.009470992,2.9116738,0.0032527654,0.0
5.197742,1.0620716,0.044949252,0.041974016,0.0013279138,0.045455717,0.041467555,0.00490679,0.0041332287,0.00069051515,0.0019940808,2.9133334,0.0006844671,0.0
5.197742,1.0620716,0.070499115,0.03885138,0.010617297,0.073731005,0.035619494,0.009800429,0.0015720204,0.005520994,0.019055756,2.910811,0.0065465453,0.0
5.19888,1.9145463,0.04075516,0.06372797,0.0052432027,0.06486807,0.039615057,0.0024466573,0.008419586,0.0027264652,0.012626506,2.9113584,0.004336981,0.0
5.19888,1.9145463,0.045943245,0.0328657,0.010116225,0.051449955,0.027358994,0.005798145,0.002397984,0.005260437,0.01204548,2.914246,0.0041333092,0.0
5.2010107,1.5684279,0.019147508,0.0142813865,0.0035626441,0.021028634,0.012400258,0.0023708981,0.0011057064,0.0018525748,0.004314188,2.9193504,0.0014777904,0.0
5.2222033,0.85855573,0.0413875,0.04511828,0.0098995585,0.053326663,0.033179116,0.004013298,0.0049833013,0.00514777,0.010073774,2.9133804,0.0034577611,0.0
5.2222033,0.85855573,0.0094004,0.017098552,0.0027602348,0.017985959,0.008512992,0.00037718585,0.0023787047,0.001435322,0.004736483,2.9201298,0.0016220112,0.0
5.2273793,1.373546,0.031281408,0.051837828,0.004249187,0.052681543,0.030437693,0.0016498653,0.006994534,0.002209577,0.011121925,2.9137614,0.0038170335,0.0
5.2273793,1.373546,0.051332142,0.0408932,0.010389108,0.057739213,0.03448613,0.0061527793,0.003438655,0.005402336,0.011626542,2.9127371,0.0039916206,0.0
5.2312193,0.6416488,0.062279623,0.077779725,0.013264974,0.08539271,0.054666642,0.005268072,0.009298098,0.0068977857,0.015363036,2.907357,0.005284193,0.0
5.2312193,0.6416488,0.06714035,0.059430983,0.0050500613,0.06963875,0.056932576,0.007583925,0.005579491,0.0026260316,0.0063530877,2.908874,0.0021840367,0.0
5.2395725,1.6684302,0.082548864,0.07916869,0.007083999,0.0881416,0.073575966,0.008848733,0.00796989,0.003683679,0.007282816,2.904921,0.0025070615,0.0
5.2395725,1.6684302,0.030949114,0.029800557,0.01219919,0.042587537,0.018162135,0.003308295,0.0030096697,0.0063435785,0.012212701,2.9162774,0.0041877707,0.0
5.2418504,0.43267348,0.01316987,0.014473336,0.011248012,0.02508848,0.0025547259,0.0012679959,0.001606897,0.0058489656,0.011266877,2.920001,0.003858518,0.0
5.2418504,0.43267348,0.0670233,0.082966015,0.0121268565,0.08950683,0.06048248,0.0057268906,0.009871996,0.0063059647,0.014512174,2.9062402,0.004993453,0.0
5.245026,1.1703689,0.04517489,0.03968457,0.009205498,0.052035827,0.032823633,0.0051264325,0.00369895,0.0047868583,0.009606097,2.9135656,0.0032970244,0.0
5.245026,1.1703689,0.030514121,0.013288091,0.008663259,0.03411733,0.009684884,0.0045170984,3.833096e-05,0.0045048944,0.012216223,2.9181836,0.0041862424,0.0
5.246299,0.21891041,0.0683003,0.03586503,0.013269428,0.073037125,0.031128205,0.009633181,0.001200012,0.006900102,0.02095446,2.9113941,0.0071973973,0.0
5.246299,0.21891041,0.03002873,0.061169855,0.0010148542,0.06120289,0.029995693,0.00069397985,0.008790672,0.0005277241,0.015603599,2.9128525,0.0053568105,0.0
5.2469416,1.834215,0.040154304,0.021679683,0.009796253,0.044381555,0.01745243,0.005617068,0.00081366574,0.0050940514,0.013464563,2.9161553,0.004617231,0.0
5.25,0.0,0.041253887,0.04047328,0.005224595,0.046102732,0.03562443,0.004351291,0.004148333,0.002716789,0.0052391514,2.913918,0.0017979749,0.0
5.2543106,2.0,0.07085381,0.077566944,0.016555553,0.091102764,0.057317983,0.0068451706,0.008590586,0.008608887,0.01689239,2.9064167,0.005812102,0.0
5.2543106,2.0,0.025500875,0.012380474,0.015661849,0.035920948,0.0019603986,0.003675482,0.00026417783,0.008144161,0.016980276,2.9188495,0.0058174552,0.0
5.2543106,2.0,0.0558701,0.064419374,0.011410045,0.07232922,0.04796025,0.0051436466,0.007366457,0.0059332233,0.012184486,2.9095807,0.004187712,0.0
5.265941,1.4735483,0.0729684,0.07102936,0.013501328,0.085534975,0.058462784,0.0077399574,0.0072358064,0.00702069,0.013536096,2.906914,0.0046565174,0.0
5.269487,0.9668531,0.05650054,0.04547507,0.016158069,0.0680604,0.033915207,0.006736042,0.00386942,0.008402195,0.017072596,2.9116404,0.005863566,0.0
5.2862253,0.75664175,0.038811073,0.06295555,0.009696513,0.06636754,0.035399083,0.0021530818,0.008430646,0.0050421865,0.015484227,2.911664,0.005317999,0.0
5.2923098,1.2786663,0.08991359,0.09284322,0.009550906,0.10104099,0.08171582,0.009122501,0.009884205,0.0049664704,0.0096625835,2.9025545,0.003328993,0.0
5.2923098,1.2786663,0.027944759,0.06295765,0.00990397,0.06556499,0.02533742,0.00017524866,0.009278601,0.005150064,0.020113785,2.912886,0.0069051054,0.0
5.2923098,1.2786663,0.06892209,0.057895083,0.009122498,0.07406779,0.052749377,0.008028002,0.005160982,0.0047436985,0.010659205,2.9088464,0.0036644097,0.0
5.2923098,1.2786663,0.04364227,0.040171795,0.013130457,0.055151656,0.028662413,0.0048094923,0.003907169,0.006827837,0.013244621,2.9136832,0.004545663,0.0
5.2923098,1.2786663,0.07102905,0.078533344,0.0061117886,0.08195284,0.06760955,0.0068016867,0.0087528005,0.0031781297,0.0071716458,2.9062881,0.0024676307,0.0
5.2923098,1.2786663,0.06574757,0.033813704,0.0059116986,0.06680682,0.03275445,0.009328587,0.0010257836,0.003074083,0.017026186,2.911912,0.005847081,0.0
5.295003,1.753884,0.027529405,0.062496576,0.008820008,0.06459534,0.025430646,0.00013561865,0.009227082,0.0045864037,0.019582348,2.9129846,0.0067224344,0.0
5.2952414,0.53973484,0.047777217,0.075400144,0.012524933,0.08023353,0.04294383,0.0028142417,0.009996202,0.006512964,0.018644849,2.9092557,0.0064088036,0.0
5.2952414,0.53973484,0.09481743,0.09396641,0.0084814215,0.10288401,0.08589983,0.009927392,0.009706125,0.0044103386,0.00849209,2.9018767,0.002926413,0.0
5.302372,1.9196688,0.07353369,0.07403955,0.014143985,0.08793286,0.05964037,0.0076080454,0.0077395695,0.0073548714,0.014146246,2.9065118,0.004867087,0.0
5.302372,1.9196688,0.054480564,0.025510786,0.007022673,0.056093186,0.02389816,0.00792562,0.00039347878,0.0036517894,0.016097512,2.9141133,0.005523983,0.0
5.302781,0.32836562,0.04866245,0.042771354,0.0038334941,0.050551355,0.040882453,0.0055203997,0.003988715,0.0019934168,0.004834451,2.9128263,0.0016597114,0.0
5.302781,0.32836562,0.04850337,0.029578878,0.008636476,0.051852167,0.026230082,0.00652046,0.0016000926,0.004490967,0.012811042,2.9143279,0.004395882,0.0
5.304503,1.5735505,0.037933666,0.06577378,0.006764342,0.06733029,0.036377154,0.0017735718,0.009012001,0.0035174575,0.0154765695,2.9114456,0.005315768,0.0
5.306483,0.109455206,0.011896213,0.012564328,0.012272234,0.02450705,-4.651025e-05,0.0011850928,0.0013588029,0.006381561,0.01227678,2.9203591,0.0042038597,0.0
5.316771,1.0751505,0.031302687,0.06119378,0.0050320425,0.06201817,0.0304783,0.0009239739,0.008695657,0.0026166618,0.015769936,2.9127066,0.005414186,0.0
5.3247275,2.0,0.084699646,0.08320537,0.00961364,0.09359514,0.07430988,0.008925315,0.0085368045,0.0049990923,0.009642631,2.904225,0.0033202078,0.0
5.3308716,1.3786685,0.044556323,0.03039607,0.009302342,0.04916644,0.025785955,0.0057383566,0.002056691,0.0048372177,0.011690243,2.91468,0.004010815,0.0
5.3308716,1.3786685,0.03384454,0.039153516,0.0074163117,0.044376083,0.028621977,0.003105732,0.004486065,0.0038564818,0.007877053,2.9148998,0.0027023407,0.0
5.341232,0.8716346,0.020438794,0.041714672,0.010826638,0.046255067,0.015898399,0.00046611606,0.0059978436,0.005629851,0.015178334,2.9161196,0.0052049765,0.0
5.341232,0.8716346,0.06756176,0.08095903,0.0067563,0.08377456,0.06474624,0.005981435,0.009464725,0.0035132756,0.00951416,2.9064052,0.0032735148,0.0
5.3430643,1.6735528,0.03714801,0.041392084,0.011926645,0.051384002,0.027156092,0.0035323547,0.004635814,0.006201855,0.012113955,2.9142764,0.0041567627,0.0
5.3430643,1.6735528,0.034303576,0.031494517,0.008685306,0.04169718,0.024100907,0.0037866777,0.003056323,0.0045163585,0.008798137,2.9157095,0.0030174945,0.0
5.350248,0.6547277,0.022992447,0.051331095,0.014198612,0.057220943,0.0171026,0.00018079992,0.0075488472,0.0073832776,0.020059172,2.9147506,0.0068819514,0.0
5.3504333,1.8393377,0.044816405,0.0734139,0.007523409,0.07527238,0.042957928,0.0024303012,0.009865649,0.0039121723,0.016157227,2.9098122,0.00555267,0.0
5.3504333,1.8393377,0.035521347,0.03575623,0.010840618,0.04648004,0.024797533,0.0036758988,0.0037369682,0.005637121,0.010841254,2.9150932,0.0037190078,0.0
5.359264,0.43782082,0.081168376,0.08682143,0.012197004,0.096515134,0.07147467,0.008000572,0.009470365,0.0063424413,0.012520231,2.9042156,0.0043110545,0.0
5.359264,0.43782082,0.01326258,0.023793625,0.0042227507,0.02527772,0.011778483,0.00055788667,0.003295958,0.0021958302,0.006749619,2.9189422,0.002312351,0.0
5.359264,0.43782082,0.063622996,0.07741886,0.01023628,0.082864456,0.05817739,0.005540714,0.009127636,0.005322865,0.012343533,2.9072466,0.0042457813,0.0
5.359264,0.43782082,0.07424509,0.07338273,0.005495917,0.07932671,0.068301104,0.0077887517,0.007564539,0.0028578765,0.005512804,2.9065058,0.0018967118,0.0
5.359264,0.43782082,0.041805647,0.0621786,0.010583273,0.066681236,0.037303016,0.0027586962,0.008055664,0.0055033015,0.01468911,2.9114146,0.0050453516,0.0
5.359264,0.43782082,0.05088055,0.07018623,0.009192388,0.073862955,0.047203824,0.0037857338,0.00880521,0.004780041,0.0133295655,2.9094932,0.0045814044,0.0
5.362965,0.21891041,0.06577241,0.053375043,0.007933145,0.06964142,0.04950603,0.0078073232,0.0045840093,0.004125235,0.010067694,2.909709,0.0034600347,0.0
5.3640547,1.1834478,0.025513543,0.053924825,0.001698394,0.054025993,0.025412373,0.00043732818,0.007824261,0.00088316476,0.01430681,2.9141753,0.0049093855,0.0
5.3640547,1.1834478,0.021941582,0.013417902,0.0010961365,0.022080285,0.013279198,0.0029467712,0.0007306147,0.00056999095,0.004400544,2.9191332,0.0015074831,0.0
5.366667,0.0,0.078979045,0.07708398,0.0039851274,0.082127735,0.073935285,0.008361635,0.007868918,0.002072266,0.004096225,2.905557,0.0014097899,0.0
5.369433,1.4786708,0.06005509,0.040220734,0.008474948,0.06318303,0.03709279,0.0077928076,0.0026358764,0.0044069723,0.013045121,2.9118316,0.0044800397,0.0
5.369433,1.4786708,0.07514295,0.06070833,0.008935093,0.07941152,0.056439757,0.008940767,0.0051877648,0.0046462477,0.011485882,2.9078302,0.0039499835,0.0
5.372789,1.9196688,0.043167144,0.060957037,0.016746549,0.07102434,0.033099838,0.0031017708,0.0077271424,0.008708205,0.018962253,2.911399,0.006513107,0.0
5.388516,0.979932,0.021964613,0.049573753,0.0053487695,0.05057376,0.020964608,0.00013080651,0.0073091825,0.00278136,0.014804576,2.9150639,0.0050786454,0.0
5.395144,2.0,0.020001663,0.018045641,0.00902284,0.028099343,0.009947963,0.0022327425,0.0017241766,0.0046918765,0.00907569,2.9188309,0.003109358,0.0
5.3984947,1.7590065,0.010258,0.019632427,0.008375711,0.02454326,0.005347167,0.0003356266,0.0027729773,0.004355369,0.009598047,2.9197483,0.0032872856,0.0
5.3984947,1.7590065,0.045973692,0.052258432,0.009418408,0.059044853,0.039187267,0.0042910534,0.005925086,0.004897572,0.009928793,2.9120615,0.003409541,0.0
5.404468,1.3003602,0.0653594,0.05516153,0.010350532,0.07179877,0.04872215,0.0075928103,0.0049413643,0.005382276,0.01153831,2.9095545,0.0039656623,0.0
5.404468,1.3003602,0.027238782,0.045234554,0.008713694,0.048762254,0.023711076,0.0014291627,0.0061080633,0.0045311204,0.012525589,2.9149587,0.004297004,0.0
5.4052544,0.7697206,0.09116553,0.09324132,0.008383973,0.1006514,0.08375545,0.009319303,0.009859007,0.0043596653,0.008447975,2.902369,0.002910717,0.0
5.4079947,1.578673,0.060493637,0.072199486,0.0042608636,0.07358615,0.059106972,0.0053782808,0.008421802,0.0022156488,0.0072395895,2.9081855,0.0024893836,0.0
5.4079947,1.578673,0.026844647,0.056011293,0.006948107,0.0575819,0.025274038,0.00051684486,0.008100172,0.0036130152,0.016153932,2.913791,0.005543957,0.0
5.4142704,0.5528137,0.045630705,0.024978593,0.0072981482,0.047949426,0.022659874,0.0063564572,0.0009869087,0.0037950368,0.012644776,2.9151685,0.00433758,0.0
5.4142704,0.5528137,0.0153129,0.031640287,0.008016112,0.03491792,0.0120352665,0.00031900516,0.0045641256,0.004168378,0.011441328,2.9178293,0.0039211777,0.0
5.419448,0.32836562,0.039913,0.037022337,0.014319376,0.0528598,0.024075534,0.004376423,0.0036248507,0.007446075,0.014392134,2.9144568,0.004938187,0.0
5.419448,0.32836562,0.038906552,0.043076925,0.013011588,0.05416935,0.027814128,0.0037209915,0.0048052887,0.006766025,0.013177611,2.9138892,0.0045223446,0.0
5.4208503,1.8393377,0.068287864,0.07269865,0.00857591,0.0793482,0.061638318,0.006757895,0.0079047,0.004459473,0.0088549405,2.9072528,0.0030458104,0.0
5.423149,0.109455206,0.05107773,0.051887773,0.010854481,0.062344786,0.04062072,0.0052489,0.0054595107,0.0056443294,0.010862034,2.911529,0.0037306973,0.0
5.4358,1.0882293,0.03752963,0.045541268,0.0119480705,0.054137155,0.028933743,0.0032781726,0.0053611994,0.006212996,0.012601706,2.9137669,0.004324885,0.0
5.4358,1.0882293,0.08613076,0.07859938,0.0065954183,0.0899598,0.07477033,0.009545045,0.0075868866,0.0034296173,0.0075947344,2.904582,0.0026147426,0.0
5.4430294,1.4003625,0.07888669,0.08478651,0.003349394,0.08629983,0.07737336,0.0077440282,0.009277982,0.0017416847,0.004463233,2.904701,0.0015365551,0.0
5.4432054,1.9196688,0.07779618,0.065664105,0.005085862,0.079646125,0.06381416,0.0090371035,0.005882764,0.0026446478,0.007915981,2.9069746,0.0027230997,0.0
5.4465566,1.6786753,0.078919195,0.07140739,0.014333297,0.08998051,0.060346063,0.008793515,0.0068404474,0.0074533136,0.014817225,2.906202,0.005098484,0.0
5.4465566,1.6786753,0.061218202,0.050185118,0.013498662,0.070284046,0.04111927,0.0072272723,0.004358671,0.0070193037,0.014582388,2.9105802,0.0050101313,0.0
5.4465566,1.6786753,0.04269055,0.06145284,0.008878757,0.064988285,0.039155107,0.0029763582,0.007854553,0.0046169534,0.012916589,2.9113967,0.004436561,0.0
5.4465566,1.6786753,0.026509449,0.048643295,0.014802143,0.056058258,0.01909448,0.0010305424,0.0067853415,0.007697114,0.018481888,2.9146574,0.0063410155,0.0
5.4465566,1.6786753,0.0538334,0.070204064,0.009985527,0.07493037,0.04910709,0.0043217614,0.008578133,0.0051924735,0.01291164,2.9091592,0.004438272,0.0
5.4465566,1.6786753,0.09113128,0.09152845,0.011492606,0.10282419,0.07983554,0.009446673,0.009549936,0.0059761545,0.011494324,2.9025655,0.0039600567,0.0
5.460261,0.88471353,0.0759009,0.06577193,0.011619319,0.08351149,0.058161333,0.008683751,0.00605022,0.0060420455,0.012675077,2.9071755,0.0043599284,0.0
5.460261,0.88471353,0.01830948,0.025591388,0.01106634,0.033600345,0.010300524,0.0013361968,0.0032294928,0.0057544964,0.01164991,2.9181724,0.003992194,0.0
5.4655604,2.0,0.075648874,0.055500776,0.012860209,0.08191103,0.049238622,0.009439033,0.004200528,0.0066873077,0.016336203,2.908359,0.005616983,0.0
5.4689116,1.7590065,0.022729112,0.02562137,0.012090402,0.036351822,0.011998662,0.0021382314,0.002890218,0.0062870085,0.012176581,2.917672,0.004173389,0.0
5.4689116,1.7590065,0.05276402,0.04064214,0.0047368864,0.054395482,0.039010674,0.0064329645,0.003281275,0.0024631806,0.007692404,2.9126043,0.0026410741,0.0
5.469277,0.6678066,0.039565288,0.03330374,0.008120985,0.045138087,0.027730945,0.0046031894,0.0029751884,0.004222912,0.008703571,2.9149144,0.0029858754,0.0
5.469277,0.6678066,0.0510429,0.07623564,0.015423187,0.08355266,0.043725878,0.003343427,0.009893538,0.008020056,0.01991339,2.9087946,0.006845925,0.0
5.476213,1.2051417,0.069580406,0.06187597,0.016152477,0.08233367,0.049122706,0.007837308,0.0058341534,0.008399287,0.016605482,2.9083247,0.005709638,0.0
5.479632,0.21891041,0.028398328,0.060151182,0.015715146,0.06661366,0.021935849,0.00047670305,0.008732445,0.008171875,0.022338904,2.9131505,0.0076682973,0.0
5.479632,0.21891041,0.062558115,0.07236491,0.012944731,0.08130382,0.05361921,0.005741113,0.00829088,0.0067312596,0.013842305,2.9079347,0.0047601843,0.0
5.481591,1.5003647,0.043826535,0.067320265,0.011130056,0.07175571,0.039391093,0.0027254482,0.008833817,0.0057876287,0.016182307,2.910609,0.0055597667,0.0
5.4819927,0.4449408,0.070760936,0.04237193,0.006653269,0.07224284,0.04089002,0.00957348,0.0021923366,0.0034596995,0.01567641,2.9103856,0.005386369,0.0
5.4819927,0.4449408,0.023104003,0.028744632,0.013030009,0.03925606,0.012592576,0.0019628468,0.0034294103,0.006775604,0.013331741,2.9172785,0.004569924,0.0
5.483333,0.0,0.015845852,0.023096,0.010913998,0.03097121,0.007970643,0.0010824567,0.0029674955,0.005675278,0.011500284,2.9187303,0.003940167,0.0
5.4912667,1.8393377,0.06289852,0.05893977,0.0072016236,0.06838783,0.053450454,0.0068502263,0.0058209533,0.0037448439,0.0074686874,2.9094064,0.0025670829,0.0
5.4912667,1.8393377,0.03770154,0.059761383,0.014236658,0.066740945,0.030721975,0.0022002917,0.007935851,0.0074030613,0.018009484,2.912148,0.0061842613,0.0
5.507545,0.9930109,0.046636872,0.02542489,0.008216757,0.04944737,0.022614393,0.006504769,0.0009896534,0.0042727133,0.013416488,2.915005,0.004602561,0.0
5.507545,0.9930109,0.057335578,0.029848607,0.008589547,0.059798993,0.027385188,0.008106883,0.00096027117,0.004466564,0.016206902,2.913304,0.0055630654,0.0
5.513622,1.9196688,0.059595957,0.032722566,0.009451371,0.062587075,0.029731443,0.008294103,0.0013070221,0.004914712,0.016427815,2.9127266,0.0056400127,0.0
5.513622,1.9196688,0.023243422,0.025662504,0.010663438,0.03518478,0.013721145,0.002228627,0.0028575885,0.005544987,0.010731816,2.9176095,0.0036782909,0.0
5.516626,1.3220541,0.036430746,0.035995666,0.011371502,0.047586787,0.024839621,0.0038227336,0.0037096122,0.0059131803,0.011373583,2.914964,0.003901792,0.0
5.516626,1.3220541,0.053760458,0.028597115,0.011089376,0.057949975,0.024407597,0.007553827,0.0010113589,0.005766475,0.01677119,2.913847,0.0057556867,0.0
5.5201526,1.600367,0.024189869,0.024571918,0.0101152435,0.03449794,0.014263845,0.002485946,0.002585279,0.005259926,0.010117047,2.9176257,0.0034675614,0.0
5.5201526,1.600367,0.03208243,0.023204586,0.0071960483,0.036098517,0.019188501,0.004029044,0.0017208047,0.0037419447,0.008455008,2.9168918,0.0028986363,0.0
5.5242834,0.78279954,0.07177167,0.07174164,0.011690542,0.0834472,0.060066104,0.007466594,0.0074587874,0.0060790814,0.01169055,2.9069686,0.0040215603,0.0
5.5242834,0.78279954,0.08159822,0.0667075,0.010369745,0.08691863,0.06138708,0.009647691,0.005776102,0.005392267,0.0127657745,2.9064295,0.0043922532,0.0
5.535977,2.0,0.059497178,0.07556067,0.009984282,0.08034277,0.054715067,0.004934753,0.009111261,0.0051918263,0.012813851,2.9079196,0.0044065355,0.0
5.535977,2.0,0.053539816,0.061892148,0.010971979,0.06945586,0.045976106,0.0049166586,0.007088264,0.005705429,0.011739878,2.910127,0.004034146,0.0
5.535977,2.0,0.05282909,0.045907374,0.012811747,0.06263919,0.036097273,0.0060341186,0.0042344723,0.006662108,0.013270959,2.9120047,0.0045573274,0.0
5.536999,0.55993366,0.012407431,0.02874571,0.006494215,0.03101255,0.01014059,1.598689e-05,0.0042639393,0.0033769915,0.01043598,2.9184816,0.0035758251,0.0
5.539816,0.109455206,0.030298507,0.023165567,0.00028402684,0.030309798,0.023154275,0.0037074133,0.0018528495,0.00014769395,0.0035777614,2.9170969,0.0012264801,0.0
5.539816,0.109455206,0.08145516,0.08747456,0.011530387,0.09638158,0.07254814,0.008001822,0.009566867,0.0059958007,0.011916719,2.9041097,0.0041033984,0.0
5.540719,1.7014701,0.0159813,0.011862238,0.009694671,0.02383279,0.004010749,0.0019833418,0.0009123857,0.0050412286,0.009911021,2.9199786,0.0033942102,0.0
5.540719,1.7014701,0.06080079,0.049202096,0.015844915,0.07187432,0.038128573,0.0072279796,0.004212319,0.008239355,0.016872874,2.9107375,0.005796769,0.0
5.5421767,0.33548558,0.02898954,0.059022035,0.0061569284,0.06023525,0.027776327,0.00067237724,0.008480825,0.0032016025,0.016229462,2.913211,0.0055709872,0.0
5.547958,1.1099232,0.024275236,0.020887801,0.017894443,0.04055594,0.004607098,0.0027888438,0.0019081114,0.009305109,0.017974421,2.9180305,0.006159778,0.0
5.555187,1.4220563,0.041967537,0.056189805,0.015478104,0.06611217,0.032045178,0.0032552865,0.006953076,0.008048614,0.017033495,2.91207,0.005849274,0.0
5.5630746,1.7818013,0.043704048,0.023439076,0.008471041,0.0467786,0.020364527,0.0061258883,0.0008569957,0.004404941,0.013207037,2.9155583,0.004529848,0.0
5.57929,0.8977924,0.066074565,0.053752385,0.0130617935,0.07435541,0.04547154,0.007832884,0.004629117,0.006792132,0.0144419335,2.9096327,0.00496349,0.0
5.57929,0.8977924,0.016615633,0.03259586,0.012595669,0.03952194,0.009689555,0.0004815677,0.004636427,0.0065497477,0.014916193,2.9175751,0.0051125307,0.0
5.57929,0.8977924,0.035672974,0.05802612,0.0048751086,0.05904309,0.034656007,0.0019664431,0.0077782613,0.0025350563,0.012193542,2.9125714,0.0041865213,0.0
5.57929,0.8977924,0.0674159,0.04646701,0.0037386718,0.06806313,0.04581978,0.008645266,0.003198555,0.0019441091,0.011121675,2.9103012,0.003821486,0.0
5.57929,0.8977924,0.051516317,0.044801086,0.0072907154,0.056185413,0.04013199,0.005881484,0.0041355244,0.0037911716,0.008026712,2.912277,0.0027561635,0.0
5.57929,0.8977924,0.070888124,0.052442696,0.0071730893,0.07334923,0.049981587,0.008811107,0.004015296,0.003730006,0.011683822,2.9092386,0.0040161097,0.0
5.5854297,1.8621324,0.03217175,0.0617838,0.013633723,0.06710479,0.026850756,0.0010361212,0.008735254,0.0070895357,0.020127015,2.9125426,0.006910462,0.0
5.588371,1.2268356,0.06414959,0.054775838,0.010499841,0.070961125,0.0479643,0.0074027083,0.004965534,0.005459917,0.011498412,2.909734,0.0039517055,0.0
5.5920057,0.6749266,0.07147842,0.0470634,0.010606572,0.075442575,0.043099247,0.009338126,0.0029902214,0.005515417,0.016171664,2.9097772,0.0055576987,0.0
5.593749,1.5220586,0.026725113,0.024921577,0.006787321,0.032670308,0.018976381,0.0029200872,0.002451168,0.0035294066,0.0068469634,2.9173012,0.0023470197,0.0
5.593749,1.5220586,0.073773205,0.07634464,0.009489817,0.08463544,0.06548241,0.0074718404,0.008140413,0.004934704,0.009576514,2.9062257,0.0032951722,0.0
5.6,0.0,0.03649469,0.020714134,0.010212784,0.041510127,0.0156987,0.0050263302,0.0009233865,0.005310647,0.012905714,2.9166756,0.004424803,0.0
5.6,0.0,0.03554661,0.054482047,0.011233455,0.05970542,0.030323237,0.0022198826,0.007143096,0.005841396,0.014691092,2.9129841,0.0050433134,0.0
5.6,0.0,0.06420202,0.059897058,0.0046282127,0.067153804,0.05694527,0.0070127957,0.005893506,0.0024066702,0.005104266,2.909152,0.0017545546,0.0
5.602361,0.22603038,0.08256815,0.066456966,0.012272427,0.089192644,0.05983247,0.009843757,0.0056548514,0.006381661,0.014680088,2.9063485,0.005051042,0.0
5.604722,0.45206076,0.039292015,0.05513476,0.005297475,0.056742888,0.037683886,0.002850635,0.006969748,0.0027546869,0.009529501,2.9124897,0.0032719434,0.0
5.604722,0.45206076,0.041684043,0.063262716,0.006838375,0.065247305,0.039699458,0.0026520037,0.008262457,0.0035559544,0.012773924,2.9113064,0.004387695,0.0
5.6077847,1.9424636,0.06682684,0.034489002,0.009074842,0.069199406,0.032116435,0.009472341,0.001064505,0.0047189174,0.018541485,2.9117148,0.006367892,0.0
5.6077847,1.9424636,0.040247895,0.018445827,0.008589737,0.043225482,0.01546824,0.005886341,0.00021780498,0.0044666626,0.013878621,2.9165087,0.004758642,0.0
5.613968,2.0,0.080847,0.065208755,0.015035026,0.08997458,0.056081176,0.00962787,0.0055619264,0.007818213,0.016946703,2.9066825,0.0058302563,0.0
5.6143155,1.6231618,0.014500961,0.013626821,0.0073240497,0.02140097,0.0067268116,0.0015762827,0.0013490063,0.0038085056,0.007337079,2.9199467,0.0025127442,0.0
5.619703,1.0147048,0.08138204,0.06439507,0.006936278,0.08385447,0.06192264,0.009788716,0.0053721014,0.0036068643,0.0109659135,2.906714,0.0037726152,0.0
5.619703,1.0147048,0.07423788,0.05620719,0.014311648,0.08213702,0.048308056,0.009127132,0.0044391537,0.007442056,0.016914481,2.9084384,0.0058156573,0.0
5.6287837,1.343748,0.027992668,0.019169375,0.012961499,0.037272736,0.009889305,0.0035994537,0.0013053981,0.006739979,0.013691716,2.9178057,0.00469247,0.0
5.6287837,1.343748,0.032006107,0.021362929,0.010013384,0.038024146,0.015344891,0.0041588023,0.0013915764,0.0052069593,0.011339627,2.9171076,0.0038872845,0.0
5.634882,1.724265,0.013458033,0.025809672,0.007556345,0.029392904,0.0098748,0.00043620745,0.0036476334,0.003929299,0.009759052,2.9186935,0.003343637,0.0
5.634882,1.724265,0.057694633,0.041023336,0.010746932,0.06295971,0.035758264,0.007300602,0.0029660657,0.005588404,0.013600722,2.9120069,0.0046705664,0.0
5.647012,0.7899195,0.039763805,0.056337163,0.0026991067,0.056765657,0.039335314,0.002842713,0.007151786,0.0014035354,0.008715171,2.9123013,0.0029925376,0.0
5.647012,0.7899195,0.010587339,0.018738113,0.007326089,0.023046065,0.0062793875,0.00046532287,0.0025845238,0.003809566,0.008383339,2.919812,0.0028711916,0.0
5.657237,1.8045962,0.023512756,0.037511617,0.013555439,0.04576807,0.015256305,0.0013534154,0.0049931183,0.0070488276,0.015255883,2.9162464,0.0052313423,0.0
5.6597285,0.5670537,0.036677618,0.029180285,0.0129448455,0.046405654,0.019452248,0.0043992633,0.0024499574,0.0067313192,0.013476703,2.9157028,0.0046221116,0.0
5.6601157,1.1316172,0.06624431,0.04105678,0.009316077,0.069315545,0.03798554,0.008854034,0.002305277,0.0048443596,0.015665002,2.9110415,0.0053812363,0.0
5.6601157,1.1316172,0.05319434,0.028201517,0.006679963,0.054867692,0.026528165,0.0074816504,0.0009835175,0.0034735803,0.014169764,2.9139552,0.0048627253,0.0
5.662545,0.116575174,0.0763566,0.058222026,0.009025546,0.08008291,0.054495707,0.009355582,0.0046405927,0.0046932832,0.012793601,2.9079735,0.00439949,0.0
5.662545,0.116575174,0.02252582,0.011750449,0.0052793655,0.024681268,0.009595001,0.003183164,0.0003815677,0.0027452698,0.0075431336,2.919255,0.0025839242,0.0
5.664906,0.34260556,0.052086517,0.0716506,0.0021062018,0.07187478,0.05186234,0.0038909987,0.00897766,0.0010952249,0.010006221,2.9091928,0.003439518,0.0
5.6673455,1.4437503,0.082260504,0.06376031,0.009728286,0.08643441,0.059586406,0.009998106,0.0051880563,0.0050587086,0.013424002,2.9066865,0.004618318,0.0
5.6673455,1.4437503,0.08555869,0.08345424,0.013796123,0.09834266,0.07067028,0.009062249,0.008515092,0.0071739834,0.01383619,2.9041004,0.0047643636,0.0
5.679592,1.8849273,0.07664576,0.07079942,0.004724642,0.07927841,0.06816676,0.008427173,0.006907123,0.0024568136,0.0055558234,2.9065263,0.0019114994,0.0
5.679592,1.8849273,0.019393498,0.023624556,0.008355695,0.030128371,0.012889682,0.0016869009,0.002786976,0.0043449607,0.008619344,2.9182718,0.0029535783,0.0
5.6857758,1.9424636,0.04624263,0.06837282,0.0077558975,0.070820324,0.043795127,0.0030830775,0.008836928,0.0040330663,0.013512598,2.9102187,0.0046431557,0.0
5.687912,1.5448534,0.06618512,0.05582464,0.012553711,0.0745854,0.047424357,0.0076913685,0.0049976446,0.006527929,0.013580522,2.909387,0.004667829,0.0
5.691959,2.0,0.05717551,0.024518343,0.010935767,0.060499243,0.021194605,0.008493511,2.648452e-06,0.005686598,0.019652318,2.9139216,0.006744285,0.0
5.7005286,1.2485296,0.0503637,0.029985674,0.0069756294,0.05252278,0.027826592,0.0068273097,0.0015290239,0.0036273268,0.012348093,2.914073,0.0042374,0.0
5.7005286,1.2485296,0.05530895,0.050243795,0.005351226,0.058696643,0.046856105,0.006147212,0.004830272,0.0027826373,0.0059202686,2.9112382,0.0020335913,0.0
5.7084785,1.6459566,0.06323094,0.029437853,0.0045774565,0.06384,0.028828792,0.009211876,0.0004256761,0.0023802773,0.017505605,2.9126873,0.0060101217,0.0
5.714735,0.68204653,0.055047374,0.029261531,0.01346565,0.060797177,0.023511728,0.0077362214,0.0010319034,0.0070021376,0.018642724,2.9136276,0.006398458,0.0
5.714735,0.68204653,0.01758389,0.030270709,0.0070110867,0.033382148,0.01447245,0.0008391526,0.004137725,0.0036457647,0.009454848,2.9177277,0.0032404833,0.0
5.7166667,0.0,0.04565172,0.045863137,0.018734576,0.0644923,0.027022554,0.0047312877,0.0047862562,0.009741979,0.018734872,2.912817,0.0064318744,0.0
5.716937,0.9215917,0.07412049,0.07025436,0.014128462,0.086447515,0.057927333,0.0080100885,0.0070048943,0.0073467996,0.014260091,2.9068716,0.004905649,0.0
5.716937,0.9215917,0.018323518,0.03110068,0.017839195,0.043660738,0.005763462,0.000909027,0.004231089,0.009276381,0.018948637,2.9175513,0.0064947056,0.0
5.72509,0.23315035,0.062302694,0.032157518,0.016876282,0.069857344,0.02460287,0.0088308025,0.000993058,0.008775666,0.022627238,2.9124858,0.007769047,0.0
5.72509,0.23315035,0.05751966,0.035195336,0.008263696,0.060245715,0.03246928,0.007723341,0.0019190168,0.0042971214,0.0138882175,2.912682,0.0047681886,0.0
5.727451,0.4591807,0.0714906,0.05926607,0.008805755,0.07609753,0.054659143,0.008388535,0.005210157,0.004578992,0.010719195,2.9084034,0.0036855943,0.0
5.727451,0.4591807,0.017899502,0.009147871,0.010081644,0.024514016,0.0025333585,0.0025441751,0.00026875132,0.0052424544,0.010990329,2.920068,0.0037637237,0.0
5.729045,1.7470598,0.060761698,0.053030692,0.003930531,0.062409014,0.051383376,0.0069222343,0.004912173,0.0020438759,0.0055128187,2.9103115,0.0018942367,0.0
5.729045,1.7470598,0.033249013,0.04874642,0.007889304,0.052055903,0.029939525,0.0022490993,0.0062784245,0.0041024378,0.011058189,2.9138877,0.003794995,0.0
5.7409415,1.3654419,0.07833272,0.078204386,0.005081284,0.08335025,0.07318687,0.008156612,0.008123245,0.0026422674,0.005081691,2.9055037,0.0017489879,0.0
5.7409415,1.3654419,0.02543038,0.014000582,0.0065315003,0.028394222,0.011036738,0.0035362833,0.00056453614,0.0033963798,0.008678742,2.9186752,0.002973521,0.0
5.7409415,1.3654419,0.021719089,0.02608829,0.0010868632,0.026343722,0.021463659,0.0019179871,0.0030539795,0.0005651688,0.0024400316,2.9177332,0.00083627645,0.0
5.7409415,1.3654419,0.03411156,0.062099375,0.006832147,0.06367812,0.032532807,0.0013645522,0.008641384,0.003552716,0.015572658,2.912289,0.005347223,0.0
5.7409415,1.3654419,0.04988157,0.029955639,0.0070545278,0.05212627,0.02771094,0.0067419047,0.0015611636,0.0036683541,0.012207665,2.9141304,0.0041891276,0.0
5.7409415,1.3654419,0.03086264,0.034380984,0.013303606,0.046041224,0.0192024,0.0029352834,0.0038500524,0.0069178743,0.013419412,2.915772,0.004602353,0.0
5.7514,1.8273909,0.033907983,0.053229757,0.0074062105,0.055741984,0.03139576,0.0020193318,0.007042992,0.003851229,0.0121731125,2.9133093,0.004178448,0.0
5.7514,1.8273909,0.026483955,0.060783166,0.0077859084,0.06246782,0.024799302,7.899261e-05,0.008996787,0.004048672,0.01883426,2.9132948,0.0064649344,0.0
5.75735,1.0385041,0.08421909,0.07715316,0.016541129,0.09760034,0.0637719,0.009309926,0.0074727857,0.008601386,0.016914219,2.90496,0.005822531,0.0
5.757583,1.8849273,0.042046905,0.06700795,0.007058207,0.06886555,0.040189307,0.002425916,0.008915788,0.0036702673,0.014338123,2.9108443,0.004925761,0.0
5.761508,1.4665451,0.03839042,0.038155254,0.012754798,0.051028177,0.025517495,0.004010946,0.003949803,0.0066324943,0.012755341,2.9145007,0.0043765097,0.0
5.761508,1.4665451,0.08281203,0.07283943,0.0046192654,0.08462285,0.07102861,0.009390312,0.006797437,0.0024020178,0.00679712,2.9056032,0.0023393147,0.0
5.763767,1.9424636,0.030139394,0.058281746,0.015909549,0.06544996,0.022971177,0.0009393933,0.008256404,0.0082729645,0.021239392,2.913165,0.0072908304,0.0
5.76995,2.0,0.0407465,0.051505584,0.007458631,0.05532227,0.036929812,0.0033984268,0.0061957887,0.0038784877,0.009196229,2.912734,0.00315725,0.0
5.7792115,0.116575174,0.016923508,0.031060595,0.0053580482,0.03286183,0.01512227,0.0006573519,0.004332994,0.002786185,0.008869779,2.9177132,0.0030399763,0.0
5.782075,1.5676483,0.07766288,0.06747931,0.016554927,0.089891374,0.055250823,0.008871256,0.0062235296,0.008608561,0.017320275,2.9067852,0.0059585674,0.0
5.782075,1.5676483,0.0665689,0.042805757,0.01572423,0.07439578,0.034978874,0.00877669,0.0025982733,0.008176599,0.019708455,2.9108083,0.006770784,0.0
5.7824574,0.5741736,0.04927615,0.066084296,0.004157626,0.067056485,0.04830396,0.0038136842,0.008183801,0.0021619652,0.009376261,2.910135,0.0032219335,0.0
5.7824574,0.5741736,0.059523486,0.047530804,0.007642312,0.06324111,0.043813184,0.007125871,0.004007774,0.003974002,0.009713963,2.9110692,0.0033369055,0.0
5.78466,0.8137188,0.062087554,0.047319647,0.013972335,0.07050705,0.038900156,0.007609002,0.0037693456,0.0072656134,0.015803447,2.9108045,0.0054292367,0.0
5.787635,0.3497255,0.08284184,0.089620575,0.006789136,0.09381937,0.07864305,0.008086809,0.00984928,0.0035303505,0.007588163,2.9037125,0.0026132625,0.0
5.787635,0.3497255,0.027796961,0.037108593,0.0077812886,0.04152058,0.023384973,0.0021645767,0.0045856,0.0040462697,0.009067804,2.9158099,0.003109875,0.0
5.797763,1.1554165,0.05816491,0.050725684,0.015247883,0.07014031,0.038750283,0.0066294093,0.004695211,0.007928899,0.015695013,2.9108627,0.0053918767,0.0
5.8026414,1.6687515,0.03253749,0.06725305,0.013541759,0.07191053,0.02788001,0.00067608483,0.00970213,0.007041714,0.02201526,2.9118862,0.007560481,0.0
5.8026414,1.6687515,0.012739825,0.010498967,0.012085273,0.023756497,-0.00051770266,0.0014997285,0.0009171054,0.006284341,0.0121371,2.9204965,0.0041558347,0.0
5.823208,1.7698545,0.04258284,0.04599985,0.0037013374,0.048367973,0.04021472,0.004162088,0.0050505106,0.0019246952,0.004076626,2.913147,0.0013993891,0.0
5.823208,1.7698545,0.023267059,0.052298672,0.00798152,0.05434829,0.021217441,0.00015530802,0.007703527,0.00415039,0.016565423,2.9146109,0.00568358,0.0
5.823208,1.7698545,0.06941832,0.040048577,0.010750001,0.07293257,0.036534328,0.009510344,0.0018742118,0.00559,0.018199122,2.9107978,0.0062522795,0.0
5.823208,1.7698545,0.04825468,0.070801415,0.0017242349,0.07093251,0.048123583,0.0032598411,0.009121991,0.00089660205,0.011404462,2.9097195,0.003919437,0.0
5.823208,1.7698545,0.052115966,0.05391268,0.00031631932,0.053966742,0.052061904,0.005279916,0.0057470617,0.00016448603,0.0009524189,2.9111845,0.00032715854,0.0
5.823208,1.7698545,0.014270651,0.014805843,0.0154217305,0.0299623,-0.0008858051,0.0014424024,0.0015815526,0.008019299,0.015424052,2.9198399,0.0052824994,0.0
5.829391,1.8273909,0.041618366,0.05560859,0.012775292,0.063178495,0.03404846,0.0032370724,0.0068745296,0.006643151,0.014565017,2.9121747,0.005001423,0.0
5.829391,1.8273909,0.027418558,0.05371289,0.011638388,0.0581242,0.023007246,0.00080057164,0.0076370975,0.0060519613,0.017558478,2.913985,0.0060255895,0.0
5.8333335,0.0,0.06726992,0.07190395,0.011152412,0.08097749,0.058196373,0.0066346163,0.007839465,0.0057992535,0.011390559,2.9074566,0.0039177057,0.0
5.835574,1.8849273,0.031360205,0.024842612,0.0032566166,0.032708503,0.023494316,0.0037698334,0.002075259,0.0016934405,0.0046070935,2.9167888,0.0015795088,0.0
5.835574,1.8849273,0.06957031,0.07520725,0.004249224,0.07748777,0.0672898,0.00679563,0.008261234,0.0022095963,0.0050989836,2.9068263,0.0017541412,0.0
5.8381763,1.2723289,0.044832896,0.020630384,0.007891338,0.047178566,0.018284716,0.0065504164,0.00025776395,0.0041034957,0.014446925,2.9157472,0.0049547935,0.0
5.8381763,1.2723289,0.028573623,0.049588118,0.0017550042,0.049733676,0.028428063,0.0013325259,0.006796294,0.00091260206,0.010652807,2.914319,0.003655333,0.0
5.841757,0.23315035,0.061272856,0.048803795,0.012492069,0.068999745,0.04107691,0.0073449626,0.0041030073,0.0064958753,0.013961418,2.9107294,0.0047965357,0.0
5.841758,1.9424636,0.08214818,0.07535552,0.0134551395,0.092629015,0.06487468,0.009073237,0.0073071453,0.0069966717,0.013877168,2.905395,0.0047763446,0.0
5.841758,1.9424636,0.08171444,0.08975301,0.012529141,0.098891765,0.07257569,0.007871291,0.009961321,0.0065151528,0.013158038,2.9038243,0.004531279,0.0
5.847941,2.0,0.017417995,0.021786965,0.013992075,0.033764053,0.0054409085,0.0014706916,0.0026066238,0.0072758785,0.014161572,2.9187007,0.0048520123,0.0
5.847941,2.0,0.04334589,0.065724865,0.009097977,0.068956815,0.04011394,0.0027624117,0.008580945,0.0047309473,0.014421437,2.9108424,0.004954386,0.0
5.849303,1.4177908,0.06936316,0.034712784,0.015621684,0.07536605,0.028709896,0.009916497,0.0009073994,0.008123275,0.023328077,2.9114041,0.008012655,0.0
5.849303,1.4177908,0.047733452,0.07166105,0.0033891364,0.07213183,0.047262672,0.0030979258,0.0093191005,0.0017623508,0.012434578,2.9096813,0.004273519,0.0
5.85018,0.4663007,0.0071095787,0.01066209,0.00078290247,0.010826973,0.0069446955,0.0004623002,0.001385953,0.00040710924,0.0019411389,2.9211113,0.00066452066,0.0
5.85018,0.4663007,0.076560244,0.085472375,0.015433226,0.09707996,0.06495266,0.0072671184,0.009584271,0.0080252765,0.016063653,2.9048855,0.0055298745,0.0
5.85018,0.4663007,0.017781995,0.020169184,0.009144213,0.028197374,0.009753806,0.0016631265,0.0022837955,0.0047549903,0.009221785,2.9188416,0.003159399,0.0
5.85018,0.4663007,0.051450867,0.05418988,0.013400327,0.0662905,0.039350245,0.0051372466,0.0058493894,0.0069681695,0.013470126,2.9112282,0.004626957,0.0
5.85018,0.4663007,0.048567932,0.04190056,0.0024669154,0.04938143,0.041087065,0.0055711195,0.003837603,0.0012827959,0.004147183,2.9129348,0.001423713,0.0
5.85018,0.4663007,0.0459475,0.030584646,0.005509586,0.047719106,0.02881304,0.005976842,0.0019825003,0.0028649846,0.009453033,2.9145021,0.003243447,0.0
5.852382,0.70584583,0.042628076,0.033613607,0.010497824,0.049545355,0.026696332,0.0051364475,0.0027926862,0.005458868,0.011424512,2.9145348,0.0039198403,0.0
5.8545847,0.945391,0.017466022,0.028933663,0.012811367,0.03723579,0.009163893,0.0009219902,0.0039035764,0.0066619106,0.014035948,2.9178915,0.004810305,0.0
5.8545847,0.945391,0.037158515,0.030833274,0.016243102,0.050544024,0.01744777,0.004357854,0.0027132912,0.008446412,0.016548127,2.9154627,0.0056759864,0.0
5.869869,1.518894,0.041639693,0.06331035,0.014898406,0.07089693,0.03405311,0.0026402166,0.008274586,0.0077471705,0.01842191,2.911306,0.006327714,0.0
5.8904357,1.6199971,0.05605499,0.059076604,0.009187562,0.06687675,0.048254844,0.0055940324,0.006379652,0.004777532,0.009310951,2.9101608,0.003199463,0.0
5.8949976,1.0623033,0.017746836,0.033599105,0.011267823,0.039449308,0.011896634,0.00060919364,0.0047307834,0.0058592674,0.013776338,2.917335,0.004722234,0.0
5.8958783,0.116575174,0.07478439,0.066673346,0.008744758,0.080368266,0.061089467,0.008410237,0.0063013653,0.0045472737,0.009639399,2.9071996,0.003315699,0.0
5.9043016,0.3497255,0.05422501,0.03295969,0.011519176,0.0592686,0.027916096,0.007298095,0.0017691118,0.005989971,0.015676253,2.913304,0.0053809187,0.0
5.9043016,0.3497255,0.014837245,0.020649182,0.012748398,0.030818623,0.0046678046,0.0010897423,0.0026008456,0.006629166,0.013075409,2.919119,0.004479232,0.0
5.911002,1.7211003,0.07606777,0.064000435,0.0059597637,0.0785149,0.061553307,0.008852298,0.0057147923,0.003099077,0.008480795,2.907356,0.002917013,0.0
5.911002,1.7211003,0.037052613,0.05505986,0.0040257615,0.055918895,0.03619358,0.0024489064,0.0071307896,0.0020933957,0.009862658,2.9127498,0.0033860297,0.0
5.915771,1.8273909,0.047211442,0.023517707,0.011046965,0.05156284,0.019166313,0.006758101,0.0005977299,0.005744421,0.016198263,2.915155,0.00555657,0.0
5.915771,1.8273909,0.033616297,0.06442942,0.011685078,0.068359435,0.029686281,0.0010926711,0.009104081,0.00607624,0.019336578,2.9120824,0.0066401204,0.0
5.920105,0.5979729,0.066682145,0.04013719,0.006480715,0.068179846,0.038639482,0.009005449,0.0021037606,0.0033699714,0.014770182,2.9110956,0.0050737537,0.0
5.920105,0.5979729,0.021847254,0.04846662,0.009391103,0.05144621,0.01886766,0.00019580386,0.007116838,0.004883373,0.016289275,2.9152017,0.0055877008,0.0
5.9219546,1.8849273,0.03272639,0.057584617,0.009675769,0.0609068,0.029404204,0.0014646022,0.007927741,0.0050313994,0.015751299,2.9129524,0.005407331,0.0
5.922307,0.83751804,0.028821168,0.019815821,0.006691652,0.032383993,0.016252995,0.0036998184,0.0013584278,0.0034796586,0.008065499,2.9176397,0.0027643917,0.0
5.928138,1.9424636,0.018002382,0.024093248,0.008619838,0.030189821,0.01190581,0.00139716,0.002980785,0.0044823154,0.009142006,2.9183755,0.0031325666,0.0
5.934321,2.0,0.019088896,0.030275833,0.009305584,0.035539657,0.013825074,0.0011126637,0.0040212674,0.0048389034,0.0108572915,2.917558,0.0037213627,0.0
5.9354105,1.1792157,0.05502952,0.03820727,0.0033988266,0.055690277,0.03754651,0.0070352047,0.0026614203,0.0017673896,0.009071883,2.9126234,0.0031146775,0.0
5.9354105,1.1792157,0.007154852,0.013710902,0.008200326,0.019264117,0.0016016373,0.0002327326,0.0019373056,0.004264169,0.00883124,2.9207633,0.003023607,0.0
5.946537,1.3246777,0.039690174,0.031041263,0.012271822,0.048377197,0.022354241,0.0048023923,0.0025536758,0.006381347,0.013011478,2.9151547,0.004463392,0.0
5.95,0.0,0.044423323,0.033775225,0.009395384,0.049898293,0.02830026,0.0054505765,0.002682071,0.0048855995,0.010799017,2.9143147,0.003705508,0.0
5.9576635,1.4701397,0.05975833,0.031474363,0.015980968,0.06695615,0.024276547,0.008421015,0.0010671838,0.008310103,0.0213398,2.9128487,0.007326093,0.0
5.9576635,1.4701397,0.009473684,0.009736013,0.01867985,0.028285159,-0.009075461,0.0009648015,0.0010330067,0.009713521,0.01868031,2.9209497,0.0063952864,0.0
5.9584236,0.23315035,0.05805999,0.057151638,0.0042269537,0.061857097,0.05335453,0.0061090896,0.005872918,0.0021980158,0.0042512827,2.9101517,0.0014608457,0.0
5.9584236,0.23315035,0.04828164,0.05524447,0.016128467,0.06826298,0.035263125,0.004478189,0.0062885247,0.008386802,0.016499927,2.9114661,0.0056672227,0.0
5.97823,1.5712429,0.012300494,0.016741185,0.010092664,0.02485485,0.0041868277,0.00093287736,0.0020874569,0.005248185,0.010334011,2.9198437,0.0035392344,0.0
5.979125,0.46705902,0.02636481,0.03625743,0.00137737,0.036445625,0.026176617,0.0019703154,0.004542397,0.00071623235,0.0051345043,2.916067,0.0017607636,0.0
5.979125,0.46705902,0.033948142,0.046454214,0.005616703,0.048606403,0.031795956,0.0025551328,0.005806711,0.0029206853,0.0084052235,2.914067,0.0028843617,0.0
5.99003,0.72964513,0.06079266,0.07751245,0.008558528,0.08111651,0.0571886,0.005018292,0.009365438,0.004450434,0.011963956,2.9075544,0.0041147834,0.0
5.99003,0.72964513,0.032033652,0.04822014,0.006108683,0.05026675,0.029987045,0.0020689531,0.0062774397,0.003176515,0.010139853,2.9140837,0.0034796025,0.0
5.992232,0.9691903,0.032362342,0.021914335,0.008718054,0.037301734,0.016974939,0.004180628,0.0014641458,0.0045333877,0.0101633975,2.9170055,0.0034841886,0.0
5.992232,0.9691903,0.042360183,0.03647466,0.017298082,0.056964032,0.021870814,0.0048645292,0.0033342934,0.008995002,0.017546609,2.9142432,0.006020983,0.0
5.998797,1.6723461,0.03319564,0.04655491,0.0055543594,0.048562534,0.03118802,0.002410323,0.005883733,0.0028882667,0.008687257,2.9141402,0.0029810702,0.0
5.998797,1.6723461,0.06733126,0.03465029,0.0045465855,0.06795199,0.03402956,0.009551565,0.001054514,0.0023642243,0.016961217,2.91164,0.005825314,0.0
6.003566,1.7786367,0.07766154,0.053584248,0.014089555,0.08415515,0.047090642,0.009954827,0.0036947324,0.0073265675,0.018532254,2.9083483,0.006372089,0.0
6.0083346,1.8849273,0.010680361,0.014834479,0.006897386,0.019960761,0.00555408,0.0007867361,0.0018668069,0.0035866406,0.0072033405,2.9202404,0.0024666945,0.0
6.0083346,1.8849273,0.043867398,0.019988153,0.010500778,0.04782812,0.016027432,0.00642479,0.0002161866,0.0054604043,0.015900344,2.9159281,0.005452927,0.0
6.012545,0.116575174,0.039885897,0.03743184,0.008231553,0.046981372,0.030336365,0.0043395488,0.0037014945,0.0042804074,0.008322503,2.914414,0.0028556352,0.0
6.012545,0.116575174,0.07454584,0.046908893,0.005125771,0.07546587,0.045988854,0.009908447,0.0027228426,0.0026654005,0.014738509,2.9094496,0.005065738,0.0
6.014518,1.9424636,0.03060702,0.06751957,0.0053599724,0.06828212,0.029844468,0.00030395112,0.0099012125,0.0027871854,0.019218825,2.9120734,0.0065997047,0.0
6.0207014,2.0,0.01141306,0.012187468,0.0168728,0.028677508,-0.0050769793,0.0011265543,0.0013279002,0.008773856,0.016877243,2.9204557,0.005778976,0.0
6.0326447,1.0861026,0.035420112,0.04554804,0.0068999585,0.049042884,0.031925272,0.0028937128,0.005526974,0.003587978,0.008558806,2.9140034,0.0029371297,0.0
6.0326447,1.0861026,0.056932367,0.07737216,0.007701992,0.07994941,0.054355115,0.004326661,0.0096410075,0.0040050354,0.012797147,2.9080043,0.004400663,0.0
6.0332465,0.35048383,0.026525173,0.052374534,0.009250769,0.055344008,0.023555703,0.00074236776,0.0074632005,0.0048104,0.015894152,2.914236,0.005453969,0.0
6.0437713,1.2315646,0.0796266,0.06561732,0.007738326,0.083059706,0.062184207,0.009373888,0.005731477,0.004023929,0.010437749,2.9067738,0.0035908364,0.0
6.0490494,0.5987312,0.066344626,0.04754576,0.018083679,0.07732579,0.036564596,0.008366152,0.0034784467,0.009403512,0.020380598,2.9103003,0.007002919,0.0
6.0548983,1.3770267,0.050776776,0.04672984,0.0060297805,0.055113547,0.042393066,0.005596445,0.004544242,0.0031354856,0.0063602403,2.9121432,0.002184041,0.0
6.059954,0.86131734,0.03747132,0.06404204,0.009963367,0.06736299,0.03415037,0.0018245006,0.008732887,0.0051809503,0.016606309,2.9116924,0.0057033184,0.0
6.059954,0.86131734,0.061980966,0.043694507,0.013245303,0.068932354,0.03674312,0.007872364,0.003117884,0.006887557,0.016094618,2.9112244,0.0055284705,0.0
6.066025,1.5224886,0.024335971,0.024567531,0.0051193526,0.029572412,0.01933109,0.0025128787,0.0025730848,0.002662063,0.005120661,2.9176097,0.0017550878,0.0
6.066025,1.5224886,0.05986484,0.02892425,0.007451416,0.061565846,0.027223242,0.008639309,0.0005947552,0.003874736,0.017171301,2.9131236,0.0058944635,0.0
6.0666666,0.0,0.031691585,0.051848944,0.009145496,0.055379815,0.028160714,0.0017236505,0.0069645634,0.0047556576,0.013609551,2.913714,0.0046708602,0.0
6.0666666,0.0,0.025302578,0.03268092,0.0016978538,0.03305287,0.02493063,0.0020559567,0.0039743264,0.0008828839,0.0040611196,2.9165885,0.0013924212,0.0
6.0666666,0.0,0.02527525,0.05044436,0.009531864,0.053646743,0.022072867,0.00066543545,0.007209403,0.0049565686,0.015786938,2.9145937,0.0054165144,0.0
6.0865912,1.6235918,0.046428256,0.059233516,0.014885212,0.06903469,0.036627084,0.0038297276,0.0071590953,0.0077403095,0.016203802,2.9112258,0.005565972,0.0
6.0865912,1.6235918,0.025941296,0.046046145,0.011387328,0.051183272,0.02080417,0.0011297163,0.0063569765,0.00592141,0.015189551,2.9150133,0.0052107996,0.0
6.087368,0.23390867,0.054480683,0.077365875,0.011777456,0.08234404,0.049502518,0.003880946,0.009831094,0.0061242767,0.016420761,2.9082808,0.0056462088,0.0
6.09136,1.7298824,0.02650856,0.014313493,0.0078015537,0.03031275,0.010509301,0.0037081053,0.00053738774,0.0040568076,0.009901725,2.9185188,0.0033927227,0.0
6.096129,1.836173,0.08063868,0.0737615,0.008461867,0.08633393,0.06806624,0.0089228405,0.007134775,0.004400171,0.009133846,2.905744,0.0031433757,0.0
6.1008983,1.9424636,0.07872532,0.07960488,0.009730091,0.088905126,0.069425076,0.008118828,0.008347511,0.005059647,0.009740025,2.905302,0.0033524998,0.0
6.1008983,1.9424636,0.0562618,0.04639961,0.008955209,0.06155379,0.041107617,0.0066204774,0.0040563075,0.004656708,0.010223087,2.9115634,0.0035112018,0.0
6.1070814,2.0,0.068301775,0.03568907,0.0114032,0.07189342,0.03209743,0.009647174,0.0011678723,0.0059296633,0.019897994,2.911414,0.0068344777,0.0
6.1080694,0.46781734,0.08254041,0.08638726,0.0081379535,0.092826,0.07610167,0.008284147,0.009284328,0.0042317356,0.008362167,2.90411,0.002879425,0.0
6.1080694,0.46781734,0.07761905,0.07799107,0.0061974823,0.08400533,0.07160478,0.008043364,0.008140087,0.0032226904,0.0062002763,2.905608,0.0021338998,0.0
6.118974,0.7304034,0.07125165,0.062998414,0.007798451,0.07594801,0.058302067,0.008053923,0.0059080813,0.004055194,0.00882297,2.9080105,0.0030340229,0.0
6.129879,0.99298954,0.08812848,0.078398764,0.008797926,0.093316995,0.07321025,0.009924278,0.0073945527,0.004574921,0.010053374,2.90438,0.0034614527,0.0
6.129879,0.99298954,0.031659037,0.035927065,0.0079587875,0.042032972,0.02555313,0.0029596335,0.00406932,0.004138569,0.008239921,2.9155085,0.002826238,0.0
6.129879,0.99298954,0.009008035,0.008037123,0.008063643,0.016600823,0.00044433586,0.0010125667,0.0007601295,0.004193094,0.008078244,2.9211931,0.0027653917,0.0
6.129879,0.99298954,0.026327364,0.046970624,0.01549286,0.055265248,0.018032746,0.0011278715,0.006495118,0.008056287,0.018616252,2.914866,0.0063866577,0.0
6.129879,0.99298954,0.020109285,0.040737495,0.009685002,0.044571888,0.016274892,0.000482365,0.005845699,0.005036201,0.014148498,2.9162664,0.004851579,0.0
6.129879,0.99298954,0.07128892,0.050289817,0.0041236524,0.07206967,0.04950907,0.009051977,0.0035922104,0.002144299,0.011280298,2.9094355,0.0038771431,0.0
6.129879,0.99298954,0.026183242,0.035426002,0.0112335365,0.042951617,0.018657628,0.0020021214,0.004405239,0.0058414387,0.0121469945,2.9161806,0.004165378,0.0
6.141006,1.1384516,0.034855414,0.066434555,0.012931444,0.07105412,0.030235851,0.0011617896,0.009372366,0.00672435,0.020409137,2.9117177,0.007009312,0.0
6.141006,1.1384516,0.021227147,0.031093523,0.005827329,0.033795394,0.018525276,0.0014380458,0.004003303,0.0030302107,0.007635059,2.9172254,0.0026172332,0.0
6.14149,0.117333494,0.009625551,0.009557304,0.010376215,0.019967698,-0.0007848432,0.0010063804,0.0009886362,0.0053956313,0.010376271,2.9209526,0.0035523586,0.0
6.14149,0.117333494,0.054807685,0.07215091,0.014042014,0.079983085,0.04697551,0.0043472275,0.008856464,0.0073018465,0.016503789,2.9088304,0.0056736856,0.0
6.1521325,1.2839135,0.08322066,0.08975626,0.014358045,0.10121367,0.07176324,0.008145171,0.009844426,0.0074661826,0.014725216,2.9036546,0.00507127,0.0
6.1521325,1.2839135,0.0517392,0.03940508,0.009611285,0.056991834,0.034152444,0.0063429372,0.0031360667,0.004997868,0.011419695,2.9128587,0.0039204424,0.0
6.1621914,0.35124215,0.064997286,0.07737119,0.0035814252,0.078333005,0.06403546,0.0057945517,0.009011767,0.001862341,0.0071487725,2.9070973,0.0024590758,0.0
6.163259,1.4293755,0.063872896,0.076851316,0.017517284,0.08904271,0.0516815,0.005630464,0.009004853,0.009108987,0.018680604,2.907282,0.006425453,0.0
6.163259,1.4293755,0.02917626,0.014052094,0.009712296,0.033923272,0.009305083,0.0042140153,0.00028173273,0.0050503933,0.012309095,2.9182482,0.004217974,0.0
6.1743855,1.5748376,0.015262999,0.03377458,0.008954021,0.03739684,0.011640741,0.00014344839,0.004956459,0.0046560904,0.01287805,2.9175947,0.004413927,0.0
6.1743855,1.5748376,0.038937677,0.023972407,0.012825497,0.046303716,0.016606364,0.005216809,0.0013258388,0.0066692582,0.014848676,2.9160345,0.0050920784,0.0
6.1743855,1.5748376,0.035609066,0.029766092,0.012026173,0.045063518,0.020311637,0.0041590948,0.002639921,0.0062536094,0.012375941,2.9157572,0.004244503,0.0
6.1743855,1.5748376,0.03776457,0.03609908,0.008044307,0.045019124,0.028844532,0.0040574237,0.003624395,0.0041830395,0.008087296,2.9148023,0.0027745608,0.0
6.1743855,1.5748376,0.053459905,0.07715025,0.014112195,0.08372957,0.04688058,0.0037119824,0.009871472,0.007338341,0.018424496,2.9084198,0.0063348818,0.0
6.1743855,1.5748376,0.061231572,0.07479338,0.011488812,0.08135314,0.054671805,0.0053102607,0.008836333,0.005974182,0.013340669,2.9078107,0.004587874,0.0
6.1779943,0.59948957,0.0517246,0.06757535,0.015028671,0.07664034,0.04265961,0.0041429996,0.008264193,0.007814908,0.016990364,2.9096918,0.0058392314,0.0
6.179155,1.6811281,0.026964001,0.026670394,0.0071401373,0.033958845,0.019675553,0.0028271568,0.0027508195,0.003712871,0.007141646,2.9170778,0.0024482193,0.0
6.179155,1.6811281,0.037156597,0.016428575,0.011320685,0.042140897,0.011444275,0.005481071,9.178595e-05,0.005886756,0.0153483115,2.9170833,0.005261527,0.0
6.1833334,0.0,0.08975802,0.0894528,0.012172009,0.10177838,0.077432446,0.009358641,0.009279283,0.0063294442,0.012172967,2.9029534,0.0041933046,0.0
6.1839237,1.7874187,0.045254625,0.07269106,0.0055419495,0.073768206,0.04417748,0.0025664386,0.009699911,0.0028818136,0.014795363,2.9098442,0.0050845896,0.0
6.1839237,1.7874187,0.0377411,0.037875056,0.00599635,0.0438048,0.031811353,0.0039146254,0.0039494536,0.0031181017,0.0059967227,2.9146054,0.0020574734,0.0
6.1886926,1.8937094,0.054041512,0.032265212,0.010524733,0.058296736,0.028009985,0.0073188674,0.0016570307,0.0054728608,0.015143376,2.9134028,0.005197831,0.0
6.1886926,1.8937094,0.04257323,0.04922213,0.0042772144,0.05131492,0.040480435,0.003909001,0.005637715,0.0022241513,0.0054172426,2.9127855,0.0018598151,0.0
6.188899,0.8620757,0.037731543,0.043680348,0.014876038,0.05587643,0.02553546,0.0034600731,0.005006762,0.0077355388,0.015170485,2.9139533,0.0052061523,0.0
6.188899,0.8620757,0.06493289,0.061080176,0.017295906,0.080409385,0.045603685,0.0070535317,0.006051826,0.008993871,0.01740285,2.908937,0.005982546,0.0
6.1934614,2.0,0.06776727,0.035259817,0.018567093,0.07618986,0.02683723,0.009583377,0.0011314385,0.009654887,0.024676315,2.9115222,0.0084754005,0.0
6.1934614,2.0,0.07045448,0.048076544,0.00937067,0.07386011,0.044670906,0.009072743,0.003254481,0.0048727477,0.0145946015,2.9097784,0.005015709,0.0
6.1934614,2.0,0.07680257,0.058725804,0.010063776,0.08129089,0.054237474,0.009397454,0.004697495,0.005233163,0.01352671,2.9078667,0.004651764,0.0
6.216313,0.23466699,0.039020374,0.041165046,0.006044445,0.046231538,0.033953883,0.0038908338,0.004448449,0.0031431112,0.0061388277,2.9140913,0.002106601,0.0
6.216313,0.23466699,0.08547401,0.07489535,0.00829631,0.090023674,0.07034569,0.00971443,0.006963981,0.004314081,0.009838991,2.9050727,0.0033868311,0.0
6.2370143,0.46857566,0.05153693,0.03970704,0.00641423,0.054347172,0.036896795,0.0062825712,0.0032068002,0.0033353993,0.008725189,2.9128475,0.0029954156,0.0
6.2370143,0.46857566,0.044423055,0.06867215,0.0021351988,0.06885873,0.04423648,0.0027285677,0.009033332,0.0011103032,0.012311123,2.91039,0.0042300597,0.0
6.243081,1.07493,0.055210568,0.031748127,0.013346575,0.061248776,0.025709916,0.0075719682,0.0014717347,0.0069402186,0.01776943,2.9133296,0.0060993545,0.0
6.243081,1.07493,0.076550774,0.077053584,0.015224661,0.092028916,0.061575443,0.007922061,0.008052791,0.007916823,0.015226737,2.9058335,0.005240058,0.0
6.247919,0.7311618,0.06381786,0.033706605,0.0036559328,0.06425539,0.03326908,0.008985734,0.001156809,0.0019010849,0.015493153,2.912141,0.0053201932,0.0
6.247919,0.7311618,0.026986646,0.054041553,0.009811219,0.057224937,0.023803266,0.0006963279,0.0077306037,0.0051018335,0.016710836,2.9139965,0.0057346798,0.0
6.2513356,0.95888466,0.0045836475,0.009955453,0.008887462,0.016554002,-0.0020149024,5.7698482e-05,0.0014543678,0.00462148,0.009284452,2.921475,0.0031780014,0.0
6.2513356,0.95888466,0.07322591,0.06471991,0.014660085,0.08423744,0.05370837,0.008278961,0.0060674017,0.007623243,0.015264535,2.9075947,0.005249884,0.0
6.2542076,1.220392,0.021979429,0.05022773,0.00694113,0.051841147,0.020366015,8.249286e-05,0.0074270507,0.0036093872,0.015737567,2.9149888,0.005398843,0.0
6.2581563,0.117333494,0.051979948,0.049860124,0.014206937,0.06516646,0.036673617,0.0055712597,0.005020106,0.0073876064,0.014246421,2.9116557,0.0048928936,0.0
6.265334,1.3658539,0.050151724,0.052287128,0.012307416,0.06357307,0.038865782,0.005049217,0.005604422,0.0063998555,0.012353644,2.9115884,0.004242922,0.0
6.2748265,1.6811281,0.06678362,0.06245839,0.0059515047,0.07095325,0.058288757,0.007282864,0.0061583035,0.0030947821,0.0063322466,2.9085736,0.002177097,0.0
6.2748265,1.6811281,0.06714151,0.042847496,0.010339517,0.07094616,0.039042845,0.008877649,0.0025612062,0.0053765485,0.015951656,2.9107392,0.0054802764,0.0
6.276461,1.511316,0.024543704,0.050682727,0.004654243,0.05148672,0.023739714,0.00051370123,0.0073098466,0.002420206,0.013873503,2.914649,0.004759922,0.0
6.276461,1.511316,0.075081594,0.052867074,0.005395836,0.07632287,0.051625803,0.009541218,0.0037654417,0.0028058346,0.012348533,2.908719,0.0042453506,0.0
6.2795954,1.7874187,0.02429113,0.048640624,0.007902752,0.050980624,0.021951128,0.0006270167,0.0069578844,0.0041094306,0.014514748,2.9149072,0.004979489,0.0
6.284364,1.8937094,0.07109726,0.06434188,0.0075269784,0.07596967,0.05946947,0.0079210345,0.006164634,0.0039140284,0.008250102,2.9078767,0.0028371569,0.0
6.289133,2.0,0.03916311,0.045159467,0.0034404644,0.046724822,0.03759775,0.0036052468,0.0051642996,0.0017890413,0.0045635365,2.913626,0.001566274,0.0
6.291136,0.35200047,0.053936053,0.043869875,0.010382631,0.060441207,0.037364725,0.00639451,0.003777305,0.005398968,0.011538241,2.9121094,0.003962159,0.0
6.291136,0.35200047,0.0045974636,0.006155054,0.016846595,0.022240845,-0.011488328,0.00035664413,0.00076161756,0.008760229,0.016864587,2.9219007,0.0057717864,0.0
6.3,0.0,0.078998946,0.07868586,0.014943986,0.09378721,0.063897595,0.0082403105,0.008158906,0.007770872,0.014944807,2.9053745,0.0051438487,0.0
6.306939,0.60024786,0.012854741,0.015047999,0.006598347,0.020640224,0.007262516,0.0011658187,0.0017360658,0.00343114,0.006688854,2.919972,0.0022907255,0.0
6.306939,0.60024786,0.077155404,0.060980525,0.01210007,0.08362194,0.05451398,0.009285801,0.0050803334,0.006292036,0.014553981,2.9075732,0.005005542,0.0
6.3103557,0.82797074,0.04516381,0.06972178,0.0075218407,0.07184251,0.04304309,0.002781514,0.009166585,0.003911357,0.014399709,2.9101884,0.0049480335,0.0
6.3329797,0.23466699,0.0708057,0.05324472,0.0033847264,0.07143549,0.05261493,0.008733548,0.004167694,0.0017600575,0.009410279,2.9091575,0.0032347094,0.0
6.356283,1.1568704,0.026395023,0.042468768,0.006430022,0.044724442,0.024139352,0.00149133,0.0056705032,0.003343611,0.010292545,2.9153647,0.0035304485,0.0
6.356283,1.1568704,0.085434094,0.086488284,0.012529975,0.09850225,0.07342014,0.008802918,0.009077007,0.0065155863,0.012541056,2.903773,0.0043188827,0.0
6.3645372,1.040825,0.036318816,0.03946962,0.011563154,0.049564198,0.02622424,0.0035313938,0.004350602,0.0060128393,0.0116699785,2.9145858,0.004003992,0.0
6.365959,0.46933398,0.08103541,0.06592379,0.004000058,0.08202891,0.06493029,0.0096063875,0.0056773666,0.0020800298,0.00854931,2.906581,0.0029413633,0.0
6.365959,0.46933398,0.075924754,0.05521326,0.013925666,0.08292313,0.048214883,0.009511669,0.0041266824,0.0072413455,0.017354123,2.9083605,0.005966978,0.0
6.365959,0.46933398,0.048924733,0.034041435,0.0044366047,0.050146893,0.03281927,0.006249069,0.0023794114,0.0023070343,0.008663811,2.9137785,0.0029733938,0.0
6.365959,0.46933398,0.05919091,0.044618372,0.009507467,0.06388302,0.03992626,0.007292512,0.0035036518,0.0049438826,0.01197838,2.9114342,0.0041142544,0.0
6.365959,0.46933398,0.06374009,0.051224828,0.011143738,0.070262946,0.04470197,0.007605159,0.0043511908,0.0057947435,0.012780488,2.9101796,0.0043916493,0.0
6.365959,0.46933398,0.010154026,0.0065080468,0.009493971,0.017998444,-0.0013363715,0.0013404047,0.00039245049,0.0049368646,0.009667408,2.9212363,0.003309355,0.0
6.3674097,1.3023324,0.0464033,0.042925216,0.013821199,0.05859443,0.03073408,0.0050972328,0.0041929316,0.007187023,0.013930175,2.913063,0.0047819684,0.0
6.3693757,0.69705683,0.05714667,0.07668683,0.011693231,0.0821544,0.051679093,0.00441912,0.009499562,0.0060804794,0.015237654,2.9080572,0.005239805,0.0
6.372792,0.9247797,0.07615907,0.07688982,0.005898201,0.082433954,0.070614934,0.007863543,0.008053538,0.003067064,0.00590951,2.905896,0.0020336276,0.0
6.372792,0.9247797,0.081881754,0.08331479,0.0076090093,0.09024094,0.0749556,0.008403924,0.008776514,0.0039566844,0.0076426715,2.9045296,0.002631294,0.0
6.374823,0.117333494,0.020945376,0.046182543,0.010224808,0.049805123,0.017322797,0.00020981995,0.0067714825,0.0053168996,0.016241163,2.91556,0.0055705123,0.0
6.375267,1.7874187,0.043144263,0.033525977,0.0063124583,0.0462708,0.030399445,0.005237229,0.002736475,0.003282478,0.007935677,2.9144866,0.0027228387,0.0
6.375267,1.7874187,0.033362087,0.04256014,0.011304642,0.050165456,0.025756773,0.0027522084,0.005143702,0.005878413,0.012204342,2.9145708,0.004187355,0.0
6.3769016,1.6176065,0.07540128,0.06761668,0.018771993,0.09068025,0.0523377,0.00844893,0.0064249355,0.009761436,0.019171275,2.9070241,0.006594811,0.0
6.378536,1.4477943,0.09090612,0.092515774,0.004821115,0.09659878,0.08682311,0.009328682,0.009747192,0.0025069797,0.004887834,2.90248,0.00168402,0.0
6.378536,1.4477943,0.07539884,0.074256666,0.011389358,0.08623142,0.06342409,0.007930568,0.0076336022,0.0059224656,0.011403665,2.9062777,0.0039238045,0.0
6.3800364,1.8937094,0.0654977,0.029069042,0.0126701845,0.0694711,0.025095643,0.009653194,0.0001817451,0.0065884953,0.022187728,2.912474,0.0076181726,0.0
6.384805,2.0,0.012250583,0.014238717,0.01682028,0.030094279,-0.0036049802,0.0011189859,0.0016359008,0.008746545,0.01684963,2.9201307,0.0057701627,0.0
6.4078026,0.35200047,0.08231436,0.07215179,0.0092469305,0.08778415,0.066682,0.009353371,0.006711105,0.0048084036,0.010551073,2.9057367,0.003631118,0.0
6.4078026,0.35200047,0.0686494,0.052977648,0.013781839,0.076667234,0.044959817,0.008361933,0.0042872783,0.0071665556,0.015853709,2.9094303,0.0054490766,0.0
6.4166665,0.0,0.06558552,0.07008951,0.0009813103,0.07029403,0.065381,0.0064695803,0.0076406207,0.0005102813,0.002456516,2.90785,0.00084478775,0.0
6.4283953,0.566143,0.036373354,0.020679392,0.013667594,0.044286393,0.012766354,0.0050069573,0.0009265274,0.007107148,0.01576002,2.9166932,0.005403386,0.0
6.4283953,0.566143,0.06485021,0.06405054,0.009781088,0.074239634,0.054661117,0.006806795,0.0065988805,0.005086165,0.009789258,2.908612,0.0033656117,0.0
6.431812,0.7938658,0.060217697,0.06157352,0.007758283,0.06868345,0.05310776,0.0061568855,0.006509399,0.004034307,0.007787846,2.9094117,0.0026767768,0.0
6.449646,0.23466699,0.021827064,0.03381504,0.0070064967,0.037041623,0.018600482,0.0013349521,0.004451826,0.003643378,0.00922057,2.9168518,0.0031611377,0.0
6.449646,0.23466699,0.026313256,0.05123881,0.010764058,0.05524375,0.022308316,0.00079238525,0.007273028,0.0055973097,0.016467717,2.9143875,0.0056504896,0.0
6.469485,1.2388108,0.01917183,0.042443153,0.014229059,0.049188316,0.012426667,0.00017870711,0.00622925,0.00739911,0.018380824,2.9161801,0.006303048,0.0
6.469485,1.2388108,0.06144891,0.031482305,0.016995063,0.069122426,0.023808785,0.00872808,0.0009367643,0.008837432,0.02265682,2.9126577,0.0077787447,0.0
6.475708,1.8937094,0.06594459,0.051671624,0.015919449,0.07625397,0.04136224,0.007971528,0.004260557,0.008278113,0.017445866,2.9098814,0.005995387,0.0
6.475708,1.8937094,0.059977196,0.029340407,0.01112299,0.06358957,0.02572803,0.008627297,0.00066173234,0.0057839546,0.01893077,2.9130642,0.006498576,0.0
6.4773426,1.7238972,0.07229694,0.06710069,0.001785629,0.07285138,0.06654624,0.007924189,0.0065731625,0.000928527,0.0031525716,2.9074314,0.001084315,0.0
6.4777393,1.1227654,0.0440872,0.07173442,0.010967373,0.07555664,0.04026498,0.0024285854,0.009616862,0.0057030334,0.017645832,2.910083,0.0060636867,0.0
6.478977,1.554085,0.06332175,0.05982187,0.0059372988,0.06776162,0.05538199,0.0068584518,0.005948483,0.003087395,0.0061898157,2.9092596,0.0021276257,0.0
6.480477,2.0,0.06005935,0.030456793,0.008703804,0.062428802,0.028087338,0.008555171,0.00085850654,0.0045259777,0.017170731,2.9129293,0.005894661,0.0
6.480612,1.3842728,0.03384076,0.032767463,0.012614627,0.045930147,0.020678073,0.0036031555,0.003324099,0.0065596057,0.012626037,2.9156184,0.0043304833,0.0
6.480612,1.3842728,0.056165427,0.04810775,0.008621666,0.061653137,0.04262004,0.006469702,0.0043747067,0.004483266,0.009516548,2.911382,0.0032687392,0.0
6.485994,1.0067201,0.040178232,0.0716045,0.009666774,0.07433992,0.03744281,0.0017272864,0.009898116,0.0050267223,0.018448554,2.9105375,0.0063385386,0.0
6.490832,0.66295195,0.06202529,0.08040062,0.0125596775,0.0867744,0.055651505,0.005017353,0.009794939,0.006531032,0.015561448,2.907091,0.005352928,0.0
6.490832,0.66295195,0.031588223,0.034111906,0.003810338,0.036863904,0.028836224,0.0030883274,0.0037444853,0.0019813755,0.00401384,2.9157207,0.0013766203,0.0
6.49149,0.117333494,0.032274857,0.054939874,0.0094890185,0.058388002,0.028826728,0.0015887131,0.0074816174,0.004934289,0.014780637,2.9133008,0.0050735017,0.0
6.49149,0.117333494,0.05260156,0.061913665,0.0039658197,0.06337371,0.051141527,0.0047442177,0.007165364,0.002062226,0.0061160903,2.9102302,0.002101583,0.0
6.4942484,0.89067477,0.051108673,0.04693388,0.0018882338,0.051835995,0.046206553,0.005640935,0.0045554885,0.0009818815,0.0028147213,2.912083,0.0009665663,0.0
6.4942484,0.89067477,0.03190822,0.028626133,0.013785288,0.044149797,0.016384557,0.0035744577,0.0027211143,0.007168349,0.01388262,2.9163017,0.004760351,0.0
6.5244694,0.47700047,0.04856968,0.06660149,0.005555564,0.06817572,0.046995454,0.0036447647,0.008333036,0.002888893,0.010590132,2.9101562,0.0036390254,0.0
6.5244694,0.47700047,0.019087723,0.009594113,0.010275323,0.02565968,0.0030221539,0.0027256245,0.000257286,0.0053431676,0.011318764,2.9198842,0.0038764426,0.0
6.5333333,0.0,0.067080244,0.046434678,0.010083849,0.07118812,0.042326804,0.008586698,0.003218852,0.005243601,0.014430659,2.9103427,0.004958405,0.0
6.5333333,0.0,0.03247328,0.032766227,0.013227495,0.045848057,0.019391445,0.0033543706,0.0034305372,0.006878297,0.013228306,2.9157724,0.00453681,0.0
6.5333333,0.0,0.06553526,0.031716645,0.014163391,0.0706833,0.02656861,0.009453518,0.0006606787,0.0073649622,0.022057345,2.9121718,0.007574191,0.0
6.5532684,0.75976086,0.022958314,0.013000138,0.010657623,0.02974257,0.0062158834,0.003164402,0.00057527644,0.0055419635,0.011763344,2.9190657,0.004029832,0.0
6.5532684,0.75976086,0.047801338,0.054617513,0.007909301,0.05982175,0.042597104,0.004439677,0.006211882,0.004112836,0.008612324,2.9115906,0.0029579445,0.0
6.566313,0.359667,0.050106734,0.06816341,0.0035085718,0.06882119,0.04944895,0.003802679,0.008497414,0.0018244572,0.009686122,2.9098077,0.0033287841,0.0
6.5761485,2.0,0.026561392,0.011425557,0.008469484,0.030351534,0.0076354137,0.0039429795,7.662653e-06,0.0044041313,0.01135806,2.9188375,0.0038912958,0.0
6.5761485,2.0,0.018628651,0.030354043,0.0123043535,0.038121033,0.010861662,0.0010227989,0.0040714005,0.0063982634,0.013629686,2.9176009,0.0046715387,0.0
6.5761485,2.0,0.02375533,0.045307975,0.0102510005,0.049404856,0.01965845,0.00078944763,0.006393135,0.0053305198,0.014873203,2.9153423,0.0051017003,0.0
6.5761485,2.0,0.03968362,0.049397603,0.012854221,0.058281843,0.030799385,0.0033694059,0.0058950405,0.0066841943,0.013741229,2.9130907,0.0047170618,0.0
6.577783,1.8301878,0.03080457,0.023014503,0.009196534,0.036896907,0.016922168,0.0038113003,0.0017858826,0.004782197,0.009987369,2.917057,0.0034237825,0.0
6.577783,1.8301878,0.037443843,0.049364824,0.010773775,0.055717,0.03109167,0.0029643227,0.0060637775,0.0056023626,0.012312665,2.9133463,0.004226296,0.0
6.5794177,1.6603756,0.0640383,0.045251884,0.0039704125,0.06484296,0.04444722,0.008125322,0.0032408552,0.0020646143,0.01019787,2.9108179,0.003503438,0.0
6.5794177,1.6603756,0.060901854,0.055669054,0.010448997,0.06905704,0.047513865,0.0067419503,0.005381422,0.005433478,0.0107715875,2.909999,0.003701578,0.0
6.5810523,1.4905634,0.07094788,0.054229278,0.0022216607,0.07123807,0.05393909,0.008682629,0.004335793,0.0011552634,0.008649491,2.909031,0.0029733237,0.0
6.5810523,1.4905634,0.0263712,0.032844525,0.01014858,0.040260077,0.018955648,0.0022376848,0.0039207498,0.005277261,0.010652214,2.91645,0.003652459,0.0
6.582687,1.3207512,0.043187987,0.066778265,0.0069550695,0.06867613,0.041290123,0.002651509,0.00878498,0.0036166357,0.013693003,2.9107418,0.0047043003,0.0
6.582687,1.3207512,0.06036029,0.07618133,0.004971449,0.07761381,0.05892781,0.0050434284,0.009156898,0.002585153,0.009342998,2.9077528,0.0032131337,0.0
6.582687,1.3207512,0.066092364,0.07737857,0.009500041,0.08278515,0.060685795,0.005993281,0.008927694,0.004940021,0.011049679,2.9069734,0.003801094,0.0
6.582687,1.3207512,0.059194926,0.026169164,0.0070730443,0.060645986,0.024718102,0.008732281,0.00014558357,0.0036779826,0.017963942,2.913509,0.0061657415,0.0
6.582687,1.3207512,0.044827603,0.06579024,0.009852713,0.069694124,0.040923722,0.0030269842,0.008477271,0.0051234104,0.014385201,2.9106684,0.0049422327,0.0
6.582687,1.3207512,0.046031825,0.06343611,0.016926376,0.0737663,0.03570164,0.0034297742,0.00795489,0.0088017145,0.01903233,2.9107978,0.0065385266,0.0
6.5869055,0.57380944,0.06911883,0.08087918,0.013564177,0.08978289,0.060215116,0.0062710494,0.009328742,0.0070533715,0.014783889,2.906239,0.0050869486,0.0
6.5909414,1.2047058,0.037198007,0.019281726,0.007845792,0.040148046,0.016331688,0.0052660624,0.00060782913,0.0040798113,0.011908179,2.9167576,0.004082677,0.0
6.5909414,1.2047058,0.053469535,0.041534323,0.012857364,0.0616767,0.03332716,0.006491777,0.0033886223,0.0066858283,0.014174771,2.9124246,0.004867,0.0
6.599196,1.0886605,0.06333361,0.04136636,0.013105522,0.06944954,0.035250433,0.00830014,0.0025886556,0.006814871,0.017099552,2.911334,0.005873442,0.0
6.599196,1.0886605,0.060740218,0.035149734,0.012426298,0.065781206,0.030108748,0.008313039,0.0016595143,0.0064616743,0.017836228,2.912325,0.006124395,0.0
6.60745,0.9726152,0.059009627,0.036819533,0.005276193,0.060200274,0.035628885,0.007867827,0.0020984039,0.00274362,0.0122856945,2.9123318,0.004218508,0.0
6.60745,0.9726152,0.018258872,0.02429754,0.010047752,0.03176981,0.010786604,0.0014279064,0.0029979597,0.005224831,0.010491602,2.9183238,0.0035950781,0.0
6.608156,0.2423335,0.06267764,0.047988594,0.011367922,0.06886721,0.041799024,0.007664219,0.0038450675,0.0059113186,0.013534091,2.910663,0.0046498314,0.0
6.6157045,0.8565698,0.036268856,0.023699027,0.00924679,0.041164428,0.018803455,0.004752407,0.001484252,0.0048083304,0.0111804865,2.9163654,0.0038337058,0.0
6.6157045,0.8565698,0.0736831,0.07307267,0.00898488,0.08236795,0.06438782,0.0077106548,0.0075519434,0.004672137,0.008990064,2.9066038,0.0030929788,0.0
6.6157045,0.8565698,0.05980684,0.03979472,0.010875155,0.06457881,0.035022747,0.0077808555,0.002577705,0.00565508,0.014778031,2.9119074,0.0050750347,0.0
6.6157045,0.8565698,0.059063535,0.07729072,0.010537086,0.08210866,0.054245587,0.0047208867,0.009459954,0.005479284,0.013931537,2.9077737,0.004791135,0.0
6.6157045,0.8565698,0.06682209,0.052518412,0.014101141,0.075481355,0.043859147,0.008065183,0.0043462277,0.0073325927,0.015811104,2.9096873,0.0054339534,0.0
6.649342,0.6706184,0.01406353,0.017506218,0.008867156,0.024817564,0.0067521855,0.0011940771,0.002089176,0.004610921,0.009032689,2.9195595,0.0030938534,0.0
6.65,0.0,0.06488038,0.04770355,0.011034163,0.070274584,0.042309344,0.008087351,0.003621376,0.005737764,0.01398262,2.9104474,0.0048042857,0.0
6.65,0.125,0.033749003,0.02903226,0.009350397,0.041033857,0.021747403,0.0038778016,0.0026514488,0.004862206,0.009643227,2.916049,0.0033069495,0.0
6.65,0.125,0.08478483,0.07919815,0.009541218,0.091933206,0.07204978,0.009253381,0.0078008464,0.004961433,0.009941712,2.9046662,0.0034226694,0.0
6.6821113,2.0,0.05363178,0.038459785,0.013299251,0.061356477,0.030735083,0.0067611197,0.0028164014,0.00691561,0.015310697,2.9127522,0.0052564368,0.0
6.6821113,1.875,0.06422041,0.07338648,0.016077513,0.085521415,0.05208547,0.005963969,0.008347146,0.008360306,0.016717972,2.9076328,0.0057496848,0.0
6.6821113,1.875,0.04598081,0.048273537,0.010349676,0.05754014,0.036714204,0.004603171,0.00519928,0.005381831,0.010412969,2.912509,0.0035752573,0.0
6.6829796,0.484667,0.07302591,0.06016061,0.0059710005,0.075370036,0.057816483,0.008598187,0.0052532093,0.00310492,0.0087767765,2.90813,0.003018014,0.0
6.6829796,0.484667,0.009471915,0.017332733,0.005743535,0.020361943,0.0064427047,0.00037193517,0.0024157478,0.0029866379,0.006959619,2.9200954,0.0023833532,0.0
6.683746,1.7051878,0.04974046,0.075653054,0.01052861,0.079391584,0.046001926,0.0031518247,0.009889099,0.0054748766,0.016694829,2.9090066,0.0057390137,0.0
6.6853805,1.5353756,0.060362037,0.049918074,0.0073162746,0.06412877,0.046151344,0.0070922803,0.0043768496,0.0038044625,0.008988714,2.9107065,0.0030881553,0.0
6.687015,1.3655634,0.014426611,0.031616457,0.0139499325,0.039406687,0.0066363793,0.00015955967,0.0046289186,0.0072539644,0.016385153,2.9179316,0.0056153317,0.0
6.687015,1.2405634,0.032919955,0.030851102,0.011548472,0.043480232,0.02029082,0.0035850455,0.0030471433,0.0060052047,0.011594706,2.9159377,0.003976322,0.0
6.687015,1.2405634,0.08274287,0.06565395,0.0076675336,0.08567878,0.06271804,0.009938193,0.0054950737,0.003987117,0.011480369,2.9064193,0.0039500045,0.0
6.687015,1.3655634,0.07101712,0.045597423,0.0056552915,0.07221851,0.04439603,0.009368515,0.0027593954,0.0029407514,0.013911238,2.909994,0.0047805044,0.0
6.6952696,1.124518,0.060918078,0.044117738,0.013928441,0.06878334,0.036252473,0.0076459055,0.0032778175,0.007242789,0.016265435,2.9112964,0.005587008,0.0
6.703524,1.0084727,0.029675316,0.048835814,0.009029181,0.05242019,0.026090944,0.0015917136,0.006573443,0.0046951734,0.013164624,2.9142797,0.0045172824,0.0
6.7117786,0.8924274,0.07521468,0.06641203,0.011265315,0.082907945,0.058718774,0.008508931,0.006220244,0.005857963,0.012094585,2.9071808,0.0041602454,0.0
6.7117786,0.7674274,0.06683014,0.059568048,0.0097619165,0.07361445,0.052783746,0.0075167767,0.005628633,0.005076196,0.010415351,2.9088936,0.0035805197,0.0
6.7117786,0.8924274,0.04121235,0.03940578,0.011513348,0.05185779,0.028760336,0.004426996,0.0039572883,0.00598694,0.011548728,2.9140427,0.003963129,0.0
6.7117786,0.7674274,0.03686615,0.053461432,0.0072534317,0.05618482,0.034142762,0.0025396475,0.00685442,0.003771784,0.011021029,2.9129505,0.003783459,0.0
6.724823,0.3673335,0.07078968,0.080042556,0.008966171,0.08550552,0.06532671,0.0066404007,0.009046149,0.0046624085,0.010089405,2.9061453,0.0034717482,0.0
6.7454157,0.581476,0.07442946,0.05168311,0.01805714,0.08439661,0.041715957,0.0095148785,0.0036008274,0.009389712,0.021340325,2.9089258,0.007336153,0.0
6.766667,0.0,0.043261465,0.07344794,0.016010256,0.08035775,0.03635166,0.0021446468,0.009993129,0.008325333,0.022003047,2.9099834,0.007561228,0.0
6.766667,0.25,0.06583784,0.05041003,0.0050985017,0.067370504,0.048877362,0.008050504,0.0040392727,0.0026512207,0.009246571,2.9100351,0.0031774775,0.0
6.766667,0.125,0.042006332,0.05569941,0.01350493,0.06399415,0.033711597,0.003300598,0.006860798,0.007022563,0.015141275,2.9121208,0.005199398,0.0
6.766667,0.25,0.07069781,0.07518475,0.008872867,0.08209337,0.063789174,0.0070025898,0.008169194,0.0046138903,0.0091520995,2.906702,0.0031486198,0.0
6.7880745,2.0,0.028315352,0.019750813,0.005604949,0.031086683,0.016979482,0.0036128303,0.0013860501,0.002914573,0.0070536006,2.9177039,0.0024175176,0.0
6.7880745,1.75,0.08078025,0.073679976,0.0064478246,0.08459067,0.06986955,0.008954966,0.0071088956,0.0033528686,0.0073605627,2.9057372,0.0025331138,0.0
6.7880745,1.875,0.017863423,0.02962805,0.008220232,0.033853844,0.013637629,0.00094015483,0.0039989576,0.00427452,0.010108108,2.9177687,0.003464328,0.0
6.7880745,1.75,0.07250426,0.043959703,0.010728461,0.07608689,0.04037707,0.009766917,0.0023453333,0.005578799,0.017854912,2.9100108,0.006135686,0.0
6.789709,1.5801878,0.07430409,0.051271643,0.0016993311,0.07442879,0.051146943,0.009524155,0.0035357191,0.0008836521,0.011640923,2.908986,0.0040017115,0.0
6.791343,1.4103756,0.014077003,0.021339307,0.012377713,0.030607495,0.0048088124,0.00089754857,0.0027857472,0.00643641,0.012899341,2.9191267,0.004418904,0.0
6.791343,1.1603756,0.023414087,0.05220028,0.0074569862,0.054017298,0.021597065,0.00018974145,0.0076741516,0.0038776326,0.016210116,2.9146054,0.0055616847,0.0
6.791343,1.2853756,0.010912986,0.02168099,0.006330845,0.02460765,0.007986328,0.00029504596,0.003094727,0.003292039,0.008310661,2.9194443,0.0028466585,0.0
6.791343,1.1603756,0.061261963,0.06684189,0.013278379,0.077620246,0.050483607,0.0059360084,0.00738679,0.0069047567,0.013568319,2.9087017,0.004664734,0.0
6.791343,1.4103756,0.0133488765,0.018467803,0.008654562,0.024933431,0.0068832478,0.0009890068,0.0023199273,0.004500372,0.009025091,2.9195316,0.0030912806,0.0
6.7995977,1.0443302,0.06755056,0.054966588,0.010680212,0.07365438,0.04886277,0.0080068065,0.004734975,0.0055537093,0.012395807,2.9093301,0.004260708,0.0
6.8078523,0.92828494,0.003394713,0.005176665,0.013285025,0.017600557,-0.00902918,0.00021405786,0.0006773653,0.0069082123,0.013314868,2.922146,0.0045565376,0.0
6.8078523,0.67828494,0.0647744,0.04349451,0.013124806,0.07103029,0.03723863,0.008396368,0.0028635976,0.0068248985,0.016895829,2.9109325,0.005804267,0.0
6.8078523,0.80328494,0.04116787,0.032522216,0.011036802,0.04869822,0.024991866,0.004955819,0.0027079491,0.0057391366,0.011853177,2.9148219,0.0040665185,0.0
6.8078523,0.92828494,0.04652493,0.043146852,0.006866043,0.051906634,0.03776515,0.005102082,0.004223782,0.003570342,0.0070707425,2.9130244,0.0024272858,0.0
6.8078523,0.67828494,0.009379865,0.011298517,0.011688017,0.022066511,-0.0013881298,0.00082585093,0.0013247004,0.0060777683,0.01172732,2.9207845,0.0040151267,0.0
6.84149,0.4923335,0.057594813,0.074719355,0.007843201,0.077768646,0.05454553,0.004654146,0.009106526,0.004078464,0.0116115585,2.9082282,0.003992657,0.0
6.84149,0.4923335,0.04195445,0.027605116,0.014565863,0.051016785,0.018542781,0.00548251,0.0017516837,0.0075742477,0.016237002,2.9152865,0.0055696075,0.0
6.883333,0.0,0.059136197,0.047677886,0.011097198,0.06589588,0.04091821,0.0070439116,0.0040647513,0.0057705427,0.012488835,2.9110963,0.004290079,0.0
6.883333,0.375,0.062443692,0.05691144,0.0046195565,0.065061964,0.054293163,0.0069256583,0.005487273,0.0024021692,0.0053844005,2.9096856,0.0018505093,0.0
6.883333,0.125,0.041596968,0.026314976,0.009713267,0.046314467,0.021597479,0.0055180793,0.0015447618,0.0050508985,0.012358494,2.9154718,0.0042389347,0.0
6.883333,0.25,0.062843986,0.061562866,0.015424586,0.07764131,0.046765544,0.0066357004,0.00630261,0.008020784,0.015437882,2.9091175,0.0053067235,0.0
6.883333,0.375,0.05734652,0.028443383,0.007347399,0.05910705,0.026682856,0.008218481,0.0007036673,0.003820647,0.016212098,2.913461,0.0055645495,0.0
6.8940372,2.0,0.07442202,0.076437,0.005040515,0.08056972,0.07028929,0.00758272,0.008106615,0.0026210677,0.005140215,2.9061422,0.0017687418,0.0
6.8940372,1.625,0.091288954,0.088394515,0.007733981,0.09770996,0.081973515,0.009719816,0.008967262,0.0040216697,0.007868223,2.9029002,0.0027104695,0.0
6.8940372,1.75,0.08322253,0.07866248,0.009328237,0.09054534,0.07133967,0.009010826,0.007825213,0.004850683,0.009602837,2.9049022,0.003305735,0.0
6.8940372,1.875,0.05971363,0.052137963,0.006359273,0.063327685,0.0485239,0.006801118,0.0048314454,0.0033068217,0.007401893,2.9105296,0.002543143,0.0
6.8940372,1.625,0.06887539,0.044076223,0.014175179,0.0753089,0.03764271,0.009097374,0.0026495918,0.0073710927,0.018833093,2.9104059,0.006470951,0.0
6.895672,1.4551878,0.008819347,0.0058947145,0.0033059437,0.010971949,0.003742113,0.0011453333,0.00038492892,0.0017190905,0.0036149183,2.9214554,0.001237369,0.0
6.895672,1.0801878,0.02945425,0.06603889,0.010311927,0.068745255,0.026747882,0.00020963995,0.009721645,0.0053622015,0.020998687,2.9123695,0.0072101727,0.0
6.895672,1.2051878,0.029094325,0.049454343,0.009054641,0.052898545,0.025650125,0.0014377281,0.0067313323,0.004708413,0.01362421,2.9142754,0.0046749907,0.0
6.895672,1.3301878,0.030106071,0.022585144,0.010656869,0.037646487,0.015044725,0.0037176635,0.0017622223,0.0055415714,0.011300881,2.9171839,0.003873901,0.0
6.895672,1.0801878,0.06496848,0.035930518,0.007483865,0.066783786,0.034115206,0.009021682,0.0014718123,0.0038916096,0.01633429,2.9117615,0.0056097624,0.0
6.895672,1.4551878,0.07352527,0.06620744,0.009462738,0.08001186,0.059720863,0.008217418,0.006314782,0.0049206237,0.010145498,2.9073937,0.003489551,0.0
6.9039264,0.96414244,0.050708015,0.028957328,0.008255726,0.05348661,0.026178729,0.0069701867,0.0013150079,0.004292977,0.013653941,2.9141498,0.0046853945,0.0
6.9039264,0.58914244,0.032685257,0.050306175,0.0054817507,0.051872313,0.031119121,0.0020248347,0.006606273,0.0028505102,0.010376596,2.9137757,0.00356122,0.0
6.9039264,0.71414244,0.03792267,0.054219157,0.009035995,0.05823821,0.033903614,0.002672831,0.0069099176,0.004698717,0.012167297,2.9127464,0.0041772593,0.0
6.9039264,0.83914244,0.07948774,0.07367213,0.0071648005,0.08431231,0.06884756,0.008720341,0.0072082835,0.003725696,0.0077323765,2.9058836,0.002660938,0.0
6.9039264,0.96414244,0.072516195,0.080758706,0.016480966,0.09362588,0.059649013,0.0068987673,0.00904182,0.008570101,0.016988434,2.9058707,0.0058462457,0.0
6.9039264,0.58914244,0.09559361,0.09572705,0.00405231,0.09971319,0.09160747,0.009931326,0.0099660205,0.002107201,0.0040528625,2.9015913,0.0013967723,0.0
7.0,0.5,0.07721802,0.08546293,0.005324101,0.08807403,0.074606925,0.00738757,0.0095312465,0.0027685324,0.0067335516,2.9048126,0.0023180675,0.0
7.0,1.0,0.027507193,0.024007237,0.008615439,0.034548588,0.016965844,0.0031337442,0.0022237557,0.0044800276,0.008791372,2.9173162,0.0030135137,0.0
7.0,0.75,0.07574683,0.08632151,0.0079691075,0.09059778,0.07147056,0.0070528435,0.009802261,0.0041439356,0.00956361,2.9048815,0.0032922549,0.0
7.0,0.625,0.06578005,0.07103074,0.010674824,0.07939832,0.057412475,0.0064315703,0.0077967504,0.005550908,0.010992922,2.9077225,0.0037805953,0.0
7.0,0.875,0.073690735,0.064579315,0.0068845223,0.077390395,0.060879655,0.008374526,0.0060055573,0.0035799511,0.00825537,2.9075582,0.0028392794,0.0
7.0,1.0,0.04320259,0.05685526,0.0095822485,0.06179406,0.038263794,0.0034281607,0.0069778548,0.0049827686,0.011765134,2.9118562,0.004040424,0.0
7.0,1.5,0.007966912,0.009464803,0.016267708,0.025000796,-0.007569081,0.00071172335,0.0011011749,0.008459207,0.016284939,2.9211495,0.005574839,0.0
7.0,1.25,0.032664556,0.06266335,0.010440234,0.06593908,0.029388819,0.0010572078,0.008856893,0.0054289214,0.018275132,2.912388,0.0062749647,0.0
7.0,1.125,0.062519945,0.059538674,0.0067947884,0.06798568,0.05407293,0.0067346124,0.005959482,0.0035332895,0.006956376,2.9093816,0.0023910154,0.0
7.0,1.375,0.014568924,0.03212287,0.009515095,0.03629087,0.010400927,0.00014596019,0.0047099856,0.0049478486,0.012944971,2.9178586,0.0044364627,0.0
7.0,0.0,0.01832098,0.015164723,0.012228309,0.029072573,0.0044131298,0.0021515696,0.001330943,0.0063587204,0.012329722,2.919344,0.0042234566,0.0
7.0,0.5,0.03522957,0.018079272,0.01033151,0.04008101,0.013227833,0.005001598,0.0005425209,0.0053723846,0.013426588,2.9171143,0.0046026953,0.0
7.0,0.25,0.050491367,0.04870721,0.008342053,0.057988904,0.041209675,0.005390266,0.004926385,0.0043378673,0.0083896145,2.9119527,0.0028810957,0.0
7.0,0.125,0.034011364,0.052489236,0.016739678,0.062370308,0.024130292,0.0020959072,0.0069001536,0.008704632,0.019120008,2.913381,0.006562824,0.0
7.0,0.375,0.08638203,0.09105259,0.00978525,0.09877736,0.07865726,0.008619427,0.009833772,0.0050883293,0.01006005,2.9031532,0.003465215,0.0
7.0,0.5,0.07910257,0.065030955,0.011306717,0.08538383,0.05874969,0.009324253,0.005665632,0.0058794925,0.013317071,2.9068987,0.0045811953,0.0
7.0,1.5,0.078294784,0.07887215,0.0053321933,0.08392347,0.07324346,0.008097621,0.008247738,0.0027727403,0.0053400025,2.9054327,0.001837937,0.0
7.0,2.0,0.05928368,0.043609645,0.009085894,0.06344551,0.039447814,0.0073880767,0.0033128276,0.004724664,0.011998847,2.9115372,0.0041211382,0.0
7.0,1.75,0.05071639,0.029440273,0.0073194634,0.052991226,0.027165437,0.0069340407,0.0014022508,0.0038061207,0.012912895,2.9140947,0.004431186,0.0
7.0,1.625,0.025632765,0.032086056,0.012430615,0.041701972,0.016016848,0.0021624507,0.0038403056,0.0064639193,0.012842562,2.9166183,0.0044032373,0.0
7.0,1.875,0.048947982,0.037352547,0.015292408,0.059504814,0.026795715,0.0059950333,0.0029802208,0.007952051,0.01635455,2.9134035,0.0056135547,0.0
7.0,1.0,0.069603376,0.082232654,0.013066966,0.09043078,0.061405256,0.006253667,0.009537278,0.006794822,0.014512762,2.9060323,0.004994013,0.0
7.0,1.5,0.07637346,0.083583124,0.007379703,0.088191375,0.0717652,0.0073804846,0.009254998,0.0038374453,0.008213088,2.905119,0.002827109,0.0
7.0,0.5,0.06764499,0.061726704,0.010999468,0.07607641,0.053295292,0.007496704,0.0059579504,0.0057197227,0.011390559,2.908559,0.0039162207,0.0
